super cell                              
   1.0000000000000000     
     7.0910579868165264    0.0000000000000000    0.0000000000000000
     0.0000000000000000    3.5455289934082632    0.0000000000000000
     0.0000000000000000    0.0000000000000000    3.5455289934082632
   Al
     4
Direct
  0.1774601457308116  0.8625127993588485  0.2275559539988119
  0.4930528090213211  0.8023897088423000  0.7571103080872029
  0.0206510799096880  0.3949387543251642  0.7334893866576097
  0.8088359643381787  0.9401587364736859  0.2818443512563749

 -0.11229588E-02  0.32022104E-02 -0.29699582E-02
 -0.14668853E-02  0.39383071E-03  0.38925951E-02
  0.22235783E-02 -0.15284158E-02  0.24186572E-03
  0.36626591E-03 -0.20676253E-02 -0.11645026E-02

           1
   2.0000000000000000     
  0.69935243E+02  0.57579064E+00 -0.17042737E-18  0.00000000E+00
  0.17714342E+00  0.86431914E+00  0.22588063E+00
  0.49263908E+00  0.80261187E+00  0.75930608E+00
  0.21278230E-01  0.39407659E+00  0.73362582E+00
  0.80893927E+00  0.93899241E+00  0.28118747E+00
 -0.30335497E-03  0.17598650E-02 -0.16812253E-02
 -0.41264871E-03  0.20624689E-03  0.21903298E-02
  0.65012961E-03 -0.85541752E-03  0.12366153E-03
  0.65874072E-04 -0.11106944E-02 -0.63276600E-03
  0.00000000E+00  0.00000000E+00  0.00000000E+00
  0.00000000E+00  0.00000000E+00  0.00000000E+00
  0.00000000E+00  0.00000000E+00  0.00000000E+00
  0.00000000E+00  0.00000000E+00  0.00000000E+00
