super cell                              
   1.0000000000000000     
     7.0910579868165264    0.0000000000000000    0.0000000000000000
     0.0000000000000000    3.5455289934082632    0.0000000000000000
     0.0000000000000000    0.0000000000000000    3.5455289934082632
   Al
     4
Direct
  0.0489734968130416  0.9283354842342864  0.7890275400726292
  0.5821246935419251  0.0620111092683773  0.1749167076782601
  0.1115376549589918  0.4477258356915011  0.3025926050301678
  0.7573641546860412  0.5619275708058352  0.7334631472189429

  0.36028341E-02 -0.19111735E-02 -0.28409369E-01
  0.29123801E-02 -0.96413041E-02  0.22320488E-01
  0.87731183E-02  0.40908532E-02  0.49748472E-02
 -0.15288332E-01  0.74616244E-02  0.11140331E-02

           1
   2.0000000000000000     
  0.59839526E+00 -0.11307050E-01 -0.17042737E-18  0.00000000E+00
  0.49989659E-01  0.92725741E+00  0.77300208E+00
  0.58294612E+00  0.56572539E-01  0.18750749E+00
  0.11401207E+00  0.45003345E+00  0.30539887E+00
  0.75305215E+00  0.56613660E+00  0.73409156E+00
  0.98637785E-03 -0.13488477E-02 -0.15974756E-01
  0.78755909E-03 -0.53940100E-02  0.12386793E-01
  0.24765985E-02  0.23882364E-02  0.28604981E-02
 -0.42505355E-02  0.43546214E-02  0.72746541E-03
  0.00000000E+00  0.00000000E+00  0.00000000E+00
  0.00000000E+00  0.00000000E+00  0.00000000E+00
  0.00000000E+00  0.00000000E+00  0.00000000E+00
  0.00000000E+00  0.00000000E+00  0.00000000E+00
