super cell
        1.0000000000
   7.091057986816526   0.000000000000000   0.000000000000000
   0.000000000000000   3.545528993408263   0.000000000000000
   0.000000000000000   0.000000000000000   3.545528993408263
    4
 Direct
   0.000000000000000   0.000000000000000   0.000000000000000
   0.500000000000000   0.000000000000000   0.000000000000000
   0.250000000000000   0.500000000000000   0.500000000000000
   0.750000000000000   0.500000000000000   0.500000000000000
