super cell                              
   1.0224196345096412     
     9.5160698588808970  -16.4823164839565095    0.0000000000000000
     9.5160698588808970   16.4823164839565095    0.0000000000000000
     0.0000000000000000    0.0000000000000000   30.8472293999999998
     432
Direct
  0.0197466400000010  0.1013905100000017  0.0430156899999972
  0.1854508999999993  0.1027450200000004  0.0532000999999980
  0.3826545800000005  0.1377592199999995  0.0385142599999995
  0.5550836399999994  0.1215932499999965  0.0497535700000000
  0.7004036100000022  0.1179400600000022  0.0536398699999978
  0.8770557499999967  0.1146036700000010  0.0568968500000011
  0.0473469900000012  0.2891654200000033  0.0490559699999977
  0.2288151999999997  0.2831728399999989  0.0371683700000034
  0.4012765100000024  0.2939859399999989  0.0510738600000025
  0.5533530399999975  0.2771015100000014  0.0389425199999991
  0.7368807100000012  0.3016962199999966  0.0560151600000012
  0.8618875000000017  0.2620109400000032  0.0393951900000005
  0.1066513399999991  0.4796946199999965  0.0366860299999985
  0.2412179000000023  0.4400365300000004  0.0344195099999993
  0.3983080200000018  0.4472737700000025  0.0387475899999998
  0.5592362000000008  0.4508362500000018  0.0486752500000023
  0.7409392799999992  0.4465058400000004  0.0327838099999980
  0.9441040800000025  0.4747527500000004  0.0455217100000027
  0.0915462500000004  0.6341580899999997  0.0271962300000013
  0.2512245100000001  0.6358344699999989  0.0140085800000023
  0.3855799199999979  0.6046952800000014  0.0298224699999992
  0.5557135099999968  0.5999301499999987  0.0381775099999970
  0.7108850199999992  0.5970084000000000  0.0369297200000034
  0.9096556800000002  0.6257874000000001  0.0391840099999996
  0.0778197699999978  0.7907164599999987  0.0431844599999991
  0.2337030200000001  0.7769859799999992  0.0272198999999986
  0.3987068599999972  0.7789029500000026  0.0370459100000033
  0.5563860899999966  0.7640220099999979  0.0480608599999996
  0.7018296899999967  0.7513402200000030  0.0297998500000034
  0.8901208600000032  0.7841258799999977  0.0347876100000022
  0.0374920699999990  0.9512133500000033  0.0342794499999997
  0.2106867199999982  0.9484499799999995  0.0293729200000001
  0.3831317599999977  0.9613978300000028  0.0319604800000022
  0.5466651300000009  0.9469364400000018  0.0442572099999978
  0.6947482400000027  0.9474789699999988  0.0405066499999975
  0.8484372799999989  0.9328047500000025  0.0501013299999968
  0.0804035999999968  0.0604336900000035  0.1326709100000016
  0.2577488900000020  0.0868714599999976  0.1359688000000006
  0.3968565400000017  0.0548783500000027  0.1309023700000012
  0.5823614000000035  0.0516819999999996  0.1338933199999985
  0.7395219699999984  0.0474083599999986  0.1325962900000022
  0.9200271599999965  0.0564080600000025  0.1342423800000034
  0.1338451199999966  0.2367748599999970  0.1267502800000031
  0.3054545000000033  0.2521936400000016  0.1306556700000030
  0.4662568999999976  0.2591715599999986  0.1258151999999981
  0.6113578399999966  0.2309608500000024  0.1175327999999993
  0.8036932300000004  0.2251984500000006  0.1342813099999987
  0.9557507900000033  0.2398971599999982  0.1247622400000026
  0.1281139000000024  0.3765378100000021  0.1258843900000031
  0.2939461100000003  0.3966953799999970  0.1154868200000010
  0.4667819300000033  0.4114634199999969  0.1240552599999987
  0.6629572599999989  0.4330372299999965  0.1222332199999983
  0.8065247400000004  0.3910425099999983  0.1347832599999990
  0.9626585600000013  0.3881842199999994  0.1167943000000022
  0.1024817899999988  0.5508702099999994  0.1217433400000019
  0.2813335800000019  0.5698563899999982  0.1100497300000001
  0.4497346500000035  0.5748286500000006  0.1097259300000033
  0.6174264200000010  0.5528226599999968  0.1216575999999989
  0.8096653200000006  0.5776559999999975  0.1210792099999978
  0.9440861300000023  0.5509667000000036  0.1197823899999975
  0.1041432199999974  0.7130171200000035  0.1252877100000021
  0.2461004900000034  0.7117785000000012  0.1195351699999989
  0.4313859299999976  0.7279780300000027  0.1161266100000020
  0.6122311900000028  0.7054785500000023  0.1375346800000017
  0.7671222199999974  0.7296041900000034  0.1096373399999990
  0.9523097399999969  0.7442150700000028  0.1117100700000009
  0.0925490899999986  0.9154588500000003  0.1258091099999987
  0.2488046100000005  0.8937865999999985  0.1083285599999968
  0.4405125700000028  0.9102439500000017  0.1176006700000016
  0.5978048200000003  0.8889588500000016  0.1292187800000022
  0.7491344900000030  0.8820090299999990  0.1280108500000026
  0.9102570100000023  0.8956900200000035  0.1193646299999997
  0.0383086200000022  0.1141794700000034  0.2104367800000020
  0.1937753200000003  0.1032141100000032  0.2190757899999980
  0.3813037700000024  0.1441460799999987  0.2114545900000024
  0.5488911400000021  0.1130058899999966  0.2200329200000013
  0.6991755499999996  0.1149576099999976  0.2115073200000026
  0.8675564699999967  0.1395829800000001  0.2180759600000002
  0.0395093699999975  0.2752528500000011  0.2048270499999987
  0.2037323599999965  0.2767015499999985  0.2113381599999968
  0.3939767500000002  0.3071676799999992  0.2137321599999993
  0.5771710499999969  0.2896157799999983  0.2030389199999973
  0.7274030900000028  0.2823355800000016  0.2097604900000007
  0.8936372100000014  0.3070771300000033  0.2057355700000016
  0.0626257999999993  0.4709736599999985  0.2083193699999981
  0.2178214799999978  0.4461900000000014  0.2015281099999982
  0.3881603199999972  0.4600852299999971  0.2086711700000023
  0.5614634200000026  0.4618984499999996  0.2121741799999981
  0.7058574100000001  0.4437053600000027  0.2109166099999982
  0.8733382699999979  0.4838178899999974  0.2105755199999990
  0.0602126699999985  0.6195052599999968  0.2024200099999973
  0.2279904299999984  0.6118161400000020  0.2014033499999996
  0.4041851300000019  0.6317374899999990  0.1969685799999965
  0.5572817999999984  0.6037086600000023  0.2302528000000024
  0.7325915500000022  0.6262916399999980  0.1972881000000015
  0.9094497600000011  0.6498496900000035  0.1978186099999988
  0.0757860499999978  0.7983598699999988  0.2068998600000000
  0.2618752599999965  0.8083326699999986  0.2042905200000007
  0.4046961399999986  0.7943190800000011  0.2113237699999999
  0.5523808200000033  0.7770511599999992  0.2132274800000005
  0.7328387800000016  0.7813570100000007  0.2084612600000000
  0.9025974600000026  0.7863867800000008  0.1998070300000023
  0.0416365900000031  0.9391662999999966  0.2216392799999980
  0.2184884600000032  0.9536468900000017  0.2000913299999993
  0.3916486800000030  0.9739132899999987  0.2133263600000035
  0.5536927500000033  0.9377899999999997  0.2090833399999994
  0.7346470199999970  0.9779235299999982  0.2233527799999990
  0.8932983400000012  0.9505723700000033  0.2210752599999992
  0.0996423100000001  0.0526529899999986  0.3002872100000005
  0.2665795799999984  0.0380798999999996  0.2878154200000012
  0.4246017099999975  0.0724927099999988  0.2924786900000029
  0.6240663499999997  0.0753758000000033  0.3006820199999964
  0.7935132499999966  0.0539800999999969  0.3040153700000019
  0.9409302099999977  0.0459655299999966  0.2978793500000023
  0.1169761700000009  0.2188234999999992  0.2969837799999979
  0.2970066600000010  0.2055465500000011  0.2934400299999993
  0.4722508799999972  0.2508413700000034  0.2865017700000010
  0.6293270199999981  0.2526297300000024  0.2857792000000003
  0.7960317599999982  0.2162145699999982  0.2943949799999999
  0.9540040899999980  0.2239056599999998  0.2965285499999979
  0.1226108199999985  0.3861381999999978  0.2866181600000033
  0.2888332300000016  0.3696321600000019  0.2815349400000002
  0.4795399899999992  0.4283515600000030  0.2949536100000003
  0.6341746700000002  0.4133405500000009  0.3062375700000004
  0.7811843699999983  0.3740226899999968  0.2826938799999965
  0.9730063100000024  0.3954830500000028  0.2923002699999984
  0.1462271700000031  0.5645809099999965  0.2899948499999994
  0.2839421999999985  0.5370063000000016  0.2929916300000031
  0.4373705599999980  0.5663881199999992  0.2954561999999967
  0.6302460699999983  0.5887459699999980  0.3031352300000023
  0.8029957600000017  0.5674901399999968  0.2978764699999985
  0.9549169900000010  0.5317660700000033  0.3020621800000001
  0.1222998100000012  0.6985359800000026  0.2906017700000021
  0.2865102299999975  0.7231026400000005  0.2857897700000009
  0.4409672700000016  0.7235281399999991  0.2881266099999991
  0.6058562400000014  0.7328499300000004  0.3011051100000017
  0.7885745199999974  0.7338749800000031  0.2797528700000029
  0.9525251399999988  0.7231239299999999  0.2973350099999976
  0.1222934400000000  0.8845330999999987  0.2875084699999988
  0.2885784500000028  0.8853938700000015  0.2859807600000011
  0.4573583199999973  0.9165192000000033  0.2880422200000012
  0.6186328000000003  0.8995918500000002  0.2955653599999977
  0.7682186199999990  0.8831240900000026  0.2894718699999999
  0.9339152700000000  0.8632079400000023  0.2919700599999970
  0.0483948199999986  0.0963914599999995  0.3972631899999968
  0.2355771100000013  0.1021324900000025  0.3771441900000028
  0.4137587299999979  0.1422574999999995  0.3710539300000022
  0.5645850100000018  0.1293700900000019  0.3729962900000032
  0.7306414600000011  0.1181931400000025  0.3834608100000025
  0.8981490899999969  0.0839388099999994  0.3816513900000018
  0.0661434499999984  0.2561608700000022  0.3809955600000023
  0.2063366699999989  0.2639326299999993  0.3698688300000015
  0.3722180099999974  0.2846941099999967  0.3758062599999974
  0.5818781199999989  0.2967255000000009  0.3808637400000023
  0.7171012800000014  0.2583662700000033  0.3654494099999965
  0.9189451100000028  0.2635832500000035  0.3854033499999971
  0.0618985699999968  0.4414740300000020  0.3816283299999981
  0.2056823899999998  0.4275152399999982  0.3716712100000024
  0.3628426200000021  0.4429505900000024  0.3558842799999979
  0.5660024100000030  0.4372252499999973  0.3833811499999982
  0.7639874600000027  0.4502033200000000  0.3751147700000033
  0.8766046900000006  0.3919751000000034  0.3664429199999972
  0.0694967700000007  0.5807216199999985  0.3776670000000024
  0.2317096800000016  0.6158277999999981  0.3740557200000012
  0.3851898100000000  0.6036161700000022  0.3743614099999988
  0.5190872900000016  0.5736303500000020  0.3821560900000023
  0.7343895799999984  0.6060185300000001  0.3813349899999992
  0.9116305399999973  0.6156732199999979  0.3756101999999970
  0.0737418300000030  0.7696767400000013  0.3587756299999967
  0.2355901900000035  0.7872406899999973  0.3646480900000029
  0.4096465599999988  0.7955595600000009  0.3695231399999983
  0.5563124800000026  0.7880812800000001  0.3741777899999974
  0.7275422800000015  0.7859378799999988  0.3804982199999998
  0.8863746199999980  0.7813894100000027  0.3752152100000004
  0.0457549500000027  0.9297603199999998  0.3793255000000002
  0.2097968799999990  0.9358174600000027  0.3775954500000012
  0.3982737799999967  0.9520657400000019  0.3731263600000005
  0.5710930099999985  0.9618940599999988  0.3817735000000013
  0.7247045900000018  0.9385731400000026  0.3749623400000033
  0.9028579399999970  0.9456322899999989  0.3642667200000034
  0.1230515000000025  0.0673319200000009  0.4626503300000024
  0.2723577800000001  0.0442356399999966  0.4612063100000015
  0.4493253899999985  0.0619136199999986  0.4482976899999969
  0.5901465399999992  0.0542319500000019  0.4616223000000019
  0.7368146900000028  0.0236160299999995  0.4606005600000032
  0.9522850500000004  0.0525370100000018  0.4831892999999994
  0.1344786100000022  0.2166111900000018  0.4699012600000003
  0.2791541300000020  0.2226993299999975  0.4618447599999982
  0.4492967300000004  0.2331008600000004  0.4566573899999966
  0.6069079700000017  0.2310809900000024  0.4589059099999986
  0.7563553999999968  0.2066851100000022  0.4629404499999978
  0.8946731999999997  0.1747739600000031  0.4703287500000002
  0.0704800600000013  0.3475070900000006  0.4678987300000017
  0.2829446200000021  0.3817536700000019  0.4502259499999965
  0.4528954700000014  0.4067470099999966  0.4499030699999977
  0.6049067699999995  0.3887229799999972  0.4683641800000018
  0.7650942000000001  0.3668117100000003  0.4541006500000009
  0.9250687999999982  0.3706322199999974  0.4637491599999990
  0.0935076700000010  0.5424514600000023  0.4603222699999989
  0.2519792800000005  0.5225794099999987  0.4607490900000002
  0.4054203900000033  0.5500813299999976  0.4705380099999985
  0.6183339999999973  0.5917256199999983  0.4540288500000003
  0.7703426599999972  0.5514392500000014  0.4553101300000009
  0.9213336500000011  0.5230789499999986  0.4589736400000035
  0.0979702400000022  0.7070777799999988  0.4538889600000005
  0.2676545400000023  0.7002287899999970  0.4552234800000008
  0.4236449400000026  0.7187392800000012  0.4553611400000008
  0.5796343100000030  0.7228866999999966  0.4542398999999975
  0.7974144699999997  0.7311094200000028  0.4550637399999999
  0.9456205899999972  0.7032140900000030  0.4586927000000003
  0.1124345500000032  0.8813598799999980  0.4608032300000033
  0.2757536000000016  0.8873358199999970  0.4490193099999971
  0.4142000800000005  0.8643765899999991  0.4725837499999983
  0.5843398100000030  0.8782298200000014  0.4541028599999990
  0.7943150199999991  0.9043760599999970  0.4571735800000027
  0.9482398500000002  0.8967516200000034  0.4604806199999985
  0.0626142200000004  0.1048508200000029  0.5556211899999965
  0.2627950199999987  0.1430861999999991  0.5425215500000036
  0.4107348100000010  0.1149596699999975  0.5325905999999989
  0.5811239900000018  0.1331529899999992  0.5445208300000033
  0.7205025800000016  0.0994774199999995  0.5451910900000030
  0.8759114499999967  0.0926092099999991  0.5579572099999979
  0.0433917100000016  0.2455543199999966  0.5413853800000012
  0.2421948000000000  0.2752192100000030  0.5399501599999965
  0.4120885900000033  0.2861254199999976  0.5437667899999994
  0.5627762000000018  0.2999665399999998  0.5526356900000025
  0.7274524899999975  0.2771185400000036  0.5500489100000010
  0.9129372100000026  0.2709388899999965  0.5555046899999994
  0.0574318899999966  0.4250044799999984  0.5422427199999973
  0.2128160399999999  0.4098246200000020  0.5354893399999980
  0.3942326199999968  0.4342820900000035  0.5383361600000001
  0.5530654399999975  0.4621782600000017  0.5262073000000029
  0.7417957500000014  0.4547477799999982  0.5481961799999979
  0.8925301700000006  0.4233246200000025  0.5526763399999979
  0.0328190000000035  0.5912276199999980  0.5392573999999968
  0.1951746100000022  0.6008208499999981  0.5329858899999991
  0.3521507199999974  0.6110659900000002  0.5396033900000035
  0.5396130299999982  0.6151661299999986  0.5451211600000008
  0.7189236099999974  0.6074320199999974  0.5221387699999980
  0.8947080200000030  0.6093182199999987  0.5371775600000035
  0.0749398600000006  0.7648797700000003  0.5385282700000005
  0.2399924600000034  0.7791307700000019  0.5476637699999998
  0.4005870000000016  0.7761695599999996  0.5675766199999970
  0.5488000400000033  0.7724145800000031  0.5432707599999986
  0.7008574500000009  0.7757102099999997  0.5250123200000019
  0.9321782700000014  0.7997204400000015  0.5452402399999983
  0.0824880600000029  0.9587802400000029  0.5445798000000011
  0.2376115499999969  0.9532879699999981  0.5485405599999993
  0.3843455199999966  0.9425449599999993  0.5480177700000013
  0.5356860099999992  0.9282309600000005  0.5441374999999979
  0.7039125200000029  0.9232942499999979  0.5399663299999986
  0.8828191599999968  0.9328881400000029  0.5432417500000000
  0.1057111200000023  0.0361340500000011  0.6422696699999975
  0.2849897999999982  0.0604645100000027  0.6353253600000031
  0.4391788900000009  0.0624839199999982  0.6117210499999999
  0.6166785500000032  0.0382072800000017  0.6205096999999995
  0.7790083300000035  0.0319930200000016  0.6301666800000021
  0.9604666299999991  0.0713919900000022  0.6267076700000018
  0.1140542600000032  0.2319067800000028  0.6249529099999975
  0.2590757999999980  0.2035181899999969  0.6227873400000021
  0.4431583399999965  0.2190933999999984  0.6182545400000024
  0.6239911600000028  0.2233573500000006  0.6317200200000030
  0.7769736699999967  0.2115996799999991  0.6254054300000007
  0.9440547600000002  0.2040468799999999  0.6312396800000002
  0.0898810200000000  0.3717438400000006  0.6154960100000011
  0.2824868800000004  0.3576198100000028  0.6216598399999995
  0.4628620299999966  0.3826810300000005  0.6271322300000008
  0.6096803399999970  0.3836852199999967  0.6366760800000009
  0.7725599199999991  0.3951536399999966  0.6244503500000036
  0.9202129800000023  0.3619116200000008  0.6335230099999976
  0.1180410600000030  0.5477836499999995  0.6180653799999973
  0.2642292199999972  0.5180075399999993  0.6184827299999966
  0.4248037600000032  0.5300862599999974  0.6209841699999998
  0.5924203200000022  0.5496688599999970  0.6137815499999988
  0.7706943000000024  0.5719948699999975  0.6178388200000029
  0.9472267599999995  0.5562629400000034  0.6206191699999977
  0.1130310100000003  0.7080485999999979  0.6282318100000026
  0.2721199699999985  0.7180892299999968  0.6297846300000032
  0.4475843999999967  0.7001338700000019  0.6258187700000022
  0.6192856899999981  0.7349567999999991  0.6219740299999970
  0.7702044899999976  0.7280676800000023  0.6081020900000027
  0.9558955299999994  0.7395543599999996  0.6200217100000032
  0.1065443900000034  0.8994970999999978  0.6265166800000017
  0.2577053300000003  0.8856813499999987  0.6299802300000010
  0.4217076400000010  0.8979600300000001  0.6244327699999985
  0.5881540600000008  0.8675267300000016  0.6320047999999971
  0.7752966500000014  0.8842129299999968  0.6283189299999989
  0.9443959500000005  0.9039822499999985  0.6335745700000004
  0.0274989199999993  0.0735553900000028  0.7107164800000021
  0.2390774100000002  0.1069557799999998  0.7213862699999964
  0.3985701900000009  0.1195856499999977  0.7139719500000012
  0.5405124299999997  0.0740856899999969  0.7088547099999971
  0.7150432500000008  0.1171514700000031  0.7113101699999973
  0.8500881300000032  0.0960705299999987  0.7156394900000009
  0.0257331199999982  0.2544881099999969  0.7128551999999999
  0.1901243100000016  0.2461831800000027  0.7103163100000032
  0.3828920799999977  0.2695491200000006  0.7048769499999992
  0.5484867899999983  0.2779816600000018  0.7170834599999978
  0.7478935899999968  0.2910485900000026  0.6938405499999973
  0.8861343199999965  0.2684792599999994  0.7169213900000031
  0.0452526099999986  0.4360827699999987  0.6893718600000014
  0.2124685900000003  0.4026394899999985  0.6948013599999996
  0.3802842300000009  0.4324087600000013  0.7006447699999967
  0.5716589600000006  0.4519276799999972  0.7109012100000029
  0.7487798499999982  0.4641060200000027  0.6987677700000035
  0.8986314699999980  0.4490372899999997  0.7054312400000029
  0.0743424500000032  0.6251880700000001  0.7201086800000027
  0.2026131000000007  0.5802492500000014  0.7040412200000006
  0.3559259600000004  0.6014157500000010  0.7049169100000015
  0.5494166499999977  0.6053303999999997  0.7112449999999981
  0.7225229299999967  0.6065290599999997  0.6976689800000031
  0.9118826699999971  0.6383535200000026  0.6980591900000022
  0.0448740599999979  0.7689155799999980  0.7045042100000032
  0.1972838200000027  0.7835735900000032  0.7060812699999985
  0.3796536700000033  0.7603739799999971  0.7085634900000031
  0.5501687699999991  0.7510240800000005  0.7117813699999971
  0.7109507099999988  0.7728617400000033  0.7008309499999967
  0.8793348299999977  0.7930320199999983  0.7160489199999986
  0.0445132400000006  0.9307337400000009  0.7186256199999974
  0.2237224200000014  0.9619350700000027  0.7208344599999990
  0.3722562900000028  0.9457435899999993  0.7024284199999968
  0.5314397000000000  0.9236804299999974  0.7038564899999997
  0.6885965299999981  0.9274791200000010  0.7201182800000012
  0.8681187299999991  0.9504786600000017  0.7032359199999973
  0.1031794599999998  0.0519020799999979  0.7935190399999996
  0.2948563400000026  0.0599179900000024  0.7992061500000034
  0.4646881999999977  0.0545141899999990  0.7924638699999988
  0.6027699899999988  0.0390505499999989  0.7915860900000027
  0.7517398099999966  0.0322156900000010  0.7988898199999994
  0.9206747200000009  0.0558159400000022  0.7898229700000030
  0.1183868199999978  0.2223143100000016  0.7950699399999976
  0.2785279799999998  0.2259116700000021  0.7895448000000016
  0.4663842599999981  0.2043487099999979  0.7984429199999994
  0.6345253799999995  0.2283601199999978  0.7835344000000006
  0.7740898799999982  0.2025707199999971  0.7863452100000003
  0.9506792899999965  0.2187636100000034  0.7936160000000001
  0.1201535399999969  0.3896914500000008  0.7756093400000026
  0.2927687099999972  0.4047750000000008  0.8045727299999967
  0.4482639499999976  0.3626811800000027  0.7801740999999964
  0.6188450599999982  0.3986534499999976  0.7893496599999992
  0.7811993400000006  0.3908143399999986  0.7806562600000007
  0.9648839199999983  0.3936707800000008  0.7867031999999980
  0.1160745700000021  0.5581180399999965  0.8022205400000004
  0.2765439799999996  0.5543148000000002  0.7864823000000030
  0.4228851000000020  0.5374983999999969  0.7762051899999989
  0.5933435600000010  0.5476315499999984  0.7860498699999994
  0.7779819300000028  0.5396051199999974  0.7891926699999985
  0.9437171300000031  0.5509533600000012  0.7864732999999973
  0.1368591000000023  0.7263926800000036  0.7985722600000003
  0.2787362999999985  0.7102444399999968  0.7849723100000006
  0.4441053299999993  0.7093841499999982  0.7888257199999984
  0.6071049700000017  0.7061994299999981  0.7854505899999964
  0.7875962500000000  0.7060196300000001  0.7973155299999988
  0.9446066499999972  0.6943642800000021  0.7838629900000029
  0.1178734699999993  0.8788399600000005  0.7916259200000013
  0.3023145399999976  0.8962197900000035  0.7928235099999981
  0.4498857800000025  0.8919481100000013  0.7884648699999985
  0.5748019999999983  0.8603724900000032  0.7901536600000014
  0.7772878899999967  0.8878331399999979  0.7951657500000024
  0.9442083200000013  0.8872472999999985  0.7954986700000006
  0.0184067200000015  0.0758954799999998  0.8821268100000026
  0.2111720300000002  0.1126381699999968  0.8753332900000004
  0.3587817100000024  0.1019192999999987  0.8870181799999983
  0.5668694399999978  0.1336347499999988  0.8768731700000032
  0.7106377400000028  0.1277461399999993  0.8759667699999980
  0.8708320599999979  0.1075850200000019  0.8733292699999993
  0.0388967900000026  0.2575057999999970  0.8781910800000006
  0.1852264199999993  0.2398907399999999  0.8800734599999984
  0.3919538999999972  0.2678958699999967  0.8747324300000017
  0.5692682800000028  0.2925505799999968  0.8823020000000028
  0.7116544800000000  0.2758261099999970  0.8686956900000027
  0.8878387600000011  0.2790141400000010  0.8676749099999981
  0.0513833799999972  0.4490132099999968  0.8724460700000023
  0.1966124100000002  0.4095807400000027  0.8735355499999997
  0.3786085600000035  0.4090375500000007  0.8785045799999978
  0.5604303400000035  0.4310105699999980  0.8691917499999988
  0.7435329199999998  0.4345896700000011  0.8851478200000003
  0.8896398999999988  0.4274113399999990  0.8831689599999990
  0.0456925699999999  0.5956564199999974  0.8673371399999965
  0.2528594400000017  0.6559529100000034  0.8688516599999971
  0.3968267899999987  0.5910949000000016  0.8621802700000032
  0.5450352800000005  0.6026839800000019  0.8669580999999980
  0.7133386599999980  0.5932995000000005  0.8736194999999967
  0.8951179900000028  0.6129900600000013  0.8831276100000025
  0.0329117200000013  0.7680153499999989  0.8575201000000021
  0.2321012299999978  0.7922803399999978  0.8699559399999970
  0.4204231200000024  0.7801716000000027  0.8663394499999981
  0.5836325599999981  0.8026281400000030  0.8658906100000010
  0.7046336399999973  0.7525699899999978  0.8715821999999989
  0.8965584099999973  0.7788112200000015  0.8760954199999986
  0.0454442300000011  0.9405589100000000  0.8770745300000016
  0.2107832599999995  0.9497220700000000  0.8732709900000017
  0.3827890000000025  0.9507956699999980  0.8791027999999983
  0.5473203999999967  0.9618995599999991  0.8902323800000005
  0.7248940200000007  0.9732015499999989  0.8916915499999973
  0.8551484199999990  0.9192206900000031  0.8832625300000032
  0.1037815899999970  0.0732365599999980  0.9610689300000033
  0.2517416700000012  0.0564809800000035  0.9569060700000023
  0.4855486599999992  0.0829860999999994  0.9574868899999984
  0.6270262000000031  0.0776487600000024  0.9637241200000020
  0.7981217900000033  0.0866056300000011  0.9685843999999975
  0.9200666799999979  0.0530359899999979  0.9701470899999975
  0.0966991100000030  0.2134769399999996  0.9664069299999980
  0.2739433699999978  0.2168776600000015  0.9535726299999965
  0.4477558399999992  0.2083255000000008  0.9567892199999974
  0.6309560199999993  0.2526651499999986  0.9724546300000014
  0.7763364600000031  0.2287550899999999  0.9501494499999978
  0.9456363400000001  0.2438720199999977  0.9520020599999981
  0.1079127699999987  0.3979528999999999  0.9524765900000034
  0.3054670900000005  0.3973810600000007  0.9571165899999983
  0.4710895500000021  0.3655952800000009  0.9586501599999977
  0.6463834899999981  0.4273992500000006  0.9535446900000011
  0.7970267099999973  0.3879871399999999  0.9696628599999997
  0.9596696799999975  0.4086070800000030  0.9626414499999996
  0.1490454799999981  0.5882469900000018  0.9407536499999978
  0.2913542200000023  0.5525581200000005  0.9432913099999993
  0.4472620900000024  0.5534885799999998  0.9542072099999999
  0.6021009099999972  0.5522040099999970  0.9554534099999969
  0.8110494299999971  0.5678207999999998  0.9605608199999978
  0.9729476700000035  0.5656882600000017  0.9571937999999989
  0.1200105599999972  0.7416621599999971  0.9478835199999978
  0.3116606600000011  0.7628094299999972  0.9376150399999972
  0.4403415999999964  0.7154629500000027  0.9436140700000024
  0.6074737900000002  0.7206562699999992  0.9551177000000024
  0.7709982599999989  0.6983666100000008  0.9538037399999979
  0.9433174099999988  0.7372761299999979  0.9572319099999973
  0.1008432100000007  0.8921113800000029  0.9530296900000010
  0.2761364400000019  0.9115820299999982  0.9535675500000025
  0.4609101100000004  0.9111070000000012  0.9656972699999997
  0.6033790299999993  0.8892467399999973  0.9602671900000033
  0.7546121099999965  0.8971755700000017  0.9638134599999972
  0.9133626300000017  0.8861198999999971  0.9517459799999983

  0.19119461E-03 -0.10866992E-03  0.31466037E-03
  0.24775314E-03 -0.59445862E-04 -0.76659562E-04
 -0.36843787E-03 -0.12380866E-03  0.20011550E-03
 -0.35248405E-03  0.53333656E-04 -0.19288882E-03
  0.80357420E-04 -0.12284478E-03 -0.32794750E-04
 -0.15985046E-03  0.15746767E-03 -0.58161260E-04
  0.34966270E-04 -0.88669949E-04 -0.44868918E-03
 -0.19891830E-03 -0.16632413E-03  0.10260089E-04
 -0.12813923E-03  0.22220670E-03 -0.32734552E-03
  0.20313685E-03  0.33313271E-03  0.19913559E-03
 -0.48635702E-04 -0.16492584E-03 -0.84323811E-04
  0.25998050E-03 -0.81313081E-04 -0.11515968E-03
 -0.12440755E-03 -0.59818863E-04  0.30805288E-04
 -0.97469641E-04  0.28783161E-03 -0.37735544E-04
  0.62439698E-04 -0.14534316E-03 -0.83712131E-04
 -0.16493902E-03 -0.40472710E-03 -0.44547662E-03
  0.13614030E-03  0.32618504E-03  0.37479673E-03
 -0.30597356E-03 -0.13494489E-04 -0.29595217E-03
 -0.22641596E-03  0.75997804E-04  0.22262143E-03
 -0.53183363E-04 -0.12364769E-03  0.19576575E-03
  0.18871446E-03  0.22381328E-04 -0.72332814E-04
 -0.41559619E-04  0.17128159E-03 -0.58738249E-04
  0.21578927E-03 -0.22087529E-03  0.77654231E-06
 -0.14138330E-04 -0.13543268E-03 -0.62448889E-04
 -0.14656304E-03  0.57869876E-04 -0.75627346E-04
  0.46247073E-03  0.84988362E-04  0.60556642E-04
  0.10974069E-03  0.10997912E-03 -0.17306680E-03
 -0.86432049E-05  0.28738006E-04 -0.22052047E-04
  0.34636653E-03  0.27018770E-04  0.95941551E-04
 -0.29384753E-04  0.14103234E-03  0.12501451E-04
 -0.15999087E-03 -0.72585373E-04  0.39984331E-04
  0.16644517E-03  0.19134756E-03  0.26015560E-03
  0.61498084E-04  0.68978708E-04  0.12853082E-03
  0.62389094E-04  0.39290687E-04  0.79639857E-04
  0.20736185E-03 -0.14090904E-03  0.20139639E-03
  0.73157751E-05  0.82281761E-04 -0.41084733E-03
 -0.19139305E-04 -0.16437347E-04 -0.72157437E-04
 -0.10838967E-03 -0.16148491E-03 -0.14826823E-03
  0.20602012E-03 -0.23330574E-04 -0.13944294E-03
  0.26665101E-03  0.10275527E-03  0.30212245E-04
  0.16309701E-03 -0.16144786E-03 -0.50650937E-04
 -0.27340453E-04  0.96405622E-04  0.11032909E-03
 -0.32768901E-03 -0.22821491E-03 -0.20424165E-03
 -0.11673086E-03  0.16987073E-03  0.98062754E-04
 -0.66490369E-04 -0.24387003E-03  0.18612990E-03
  0.52774975E-04  0.16767394E-04  0.50118522E-03
 -0.36667548E-03  0.26520673E-03 -0.18458630E-03
 -0.24818834E-03 -0.31871523E-03  0.15283957E-03
  0.25353195E-03  0.47480887E-03 -0.92042562E-04
  0.16999609E-03  0.61393482E-04  0.25480189E-03
 -0.14636392E-03  0.20470904E-03  0.37459350E-03
 -0.46474027E-03 -0.20131493E-03 -0.14139119E-03
 -0.12107489E-03  0.63587348E-04 -0.13573956E-03
  0.14182501E-03  0.20259438E-04  0.76603602E-04
  0.14446889E-04 -0.13547492E-03 -0.66529948E-04
 -0.25251811E-03  0.47651938E-04  0.20689191E-04
 -0.10569153E-03 -0.61270901E-04  0.30453048E-03
  0.27592707E-03  0.27448628E-03  0.23639114E-03
 -0.87773190E-05  0.19055108E-03 -0.92757242E-04
  0.29113440E-03  0.59598909E-04  0.23985013E-03
 -0.69723379E-04  0.41236045E-03 -0.12622484E-03
  0.40687266E-03 -0.27907724E-03 -0.97553069E-04
  0.18506722E-03  0.72238567E-04  0.25045048E-03
 -0.11893207E-03  0.21481328E-03 -0.37795663E-04
  0.14103301E-04 -0.28695426E-03  0.17236926E-03
  0.13971892E-03 -0.21134090E-05  0.19933091E-03
 -0.52535207E-04 -0.94712573E-04 -0.45240586E-04
 -0.67297599E-04 -0.97617064E-04  0.15096461E-03