super cell                              
   1.0000000000000000     
     7.0910579868165264    0.0000000000000000    0.0000000000000000
     0.0000000000000000    3.5455289934082632    0.0000000000000000
     0.0000000000000000    0.0000000000000000    3.5455289934082632
   Al
     4
Direct
  0.1792488809179453  0.9000799772606480  0.9547770766309857
  0.5619806723159942  0.6878896317927770  0.3896649504023739
  0.9221284534246024  0.4369716728723719  0.5774718393305658
  0.8366419933414586  0.9750587200742030  0.0780861306360743

 -0.70599059E-02  0.26400024E-02  0.41326783E-02
 -0.20765085E-02 -0.39086961E-02  0.22233844E-02
  0.11418482E-01 -0.11043482E-02 -0.12794136E-01
 -0.22820675E-02  0.23730419E-02  0.64380738E-02

           1
   2.0000000000000000     
  0.64036597E+00 -0.17301501E-03  0.42606841E-19  0.00000000E+00
  0.17725767E+00  0.90156918E+00  0.95710828E+00
  0.56139500E+00  0.68568477E+00  0.39091914E+00
  0.92534898E+00  0.43634872E+00  0.57025479E+00
  0.83599835E+00  0.97639733E+00  0.81717788E-01
 -0.20608737E-02  0.15217584E-02  0.23640595E-02
 -0.50322554E-03 -0.21343112E-02  0.11275003E-02
  0.31503179E-02 -0.78784138E-03 -0.72109721E-02
 -0.58621871E-03  0.14003942E-02  0.37194124E-02
  0.00000000E+00  0.00000000E+00  0.00000000E+00
  0.00000000E+00  0.00000000E+00  0.00000000E+00
  0.00000000E+00  0.00000000E+00  0.00000000E+00
  0.00000000E+00  0.00000000E+00  0.00000000E+00
