super cell                              
   1.0138007551464026     
     9.5160698588808970  -16.4823164839565095    0.0000000000000000
     9.5160698588808970   16.4823164839565095    0.0000000000000000
     0.0000000000000000    0.0000000000000000   30.8472293999999998
     432
Direct
  0.0197466442599568  0.1013905149450964  0.0430156909521467
  0.1854508965693139  0.1027450202643496  0.0532000954729032
  0.3826545789696052  0.1377592216733493  0.0385142629949146
  0.5550836420389292  0.1215932534454659  0.0497535692049028
  0.7004036059046140  0.1179400605497447  0.0536398697245415
  0.8770557503442995  0.1146036676860062  0.0568968467002438
  0.0473469854843648  0.2891654236215840  0.0490559662079350
  0.2288151985802930  0.2831728405273788  0.0371683701176623
  0.4012765063761015  0.2939859408301791  0.0510738563597372
  0.5533530444652374  0.2771015086912378  0.0389425165061734
  0.7368807080430489  0.3016962211440219  0.0560151565229495
  0.8618875014162879  0.2620109432443158  0.0393951939515511
  0.1066513428976903  0.4796946205526136  0.0366860346175302
  0.2412179028476139  0.4400365270562834  0.0344195137687219
  0.3983080167398521  0.4472737744614627  0.0387475938573121
  0.5592361980573533  0.4508362498586802  0.0486752490977188
  0.7409392757429747  0.4465058358725071  0.0327838131677411
  0.9441040825390196  0.4747527477663795  0.0455217062516263
  0.0915462466072135  0.6341580895713399  0.0271962257440890
  0.2512245101471320  0.6358344697316216  0.0140085790313732
  0.3855799226357688  0.6046952843627913  0.0298224656750232
  0.5557135051490930  0.5999301515231645  0.0381775102972980
  0.7108850236591651  0.5970084022239995  0.0369297160160162
  0.9096556793984603  0.6257873982025818  0.0391840053206348
  0.0778197693505837  0.7907164632187558  0.0431844635735287
  0.2337030153170705  0.7769859778932737  0.0272199005180833
  0.3987068558840717  0.7789029508080074  0.0370459131613204
  0.5563860924739776  0.7640220079603322  0.0480608649739225
  0.7018296856464892  0.7513402194831579  0.0297998469475904
  0.8901208643570195  0.7841258824010139  0.0347876109826902
  0.0374920727031858  0.9512133537405381  0.0342794495163746
  0.2106867197128622  0.9484499769602253  0.0293729217215230
  0.3831317556230839  0.9613978311181968  0.0319604755315323
  0.5466651349747853  0.9469364386806003  0.0442572069125000
  0.6947482424589182  0.9474789698796044  0.0405066457722121
  0.8484372839694085  0.9328047515482063  0.0501013323458309
  0.0804035957529047  0.0604336911811500  0.1326709119985804
  0.2577488905524216  0.0868714592987486  0.1359687979547702
  0.3968565410391819  0.0548783504396987  0.1309023703714982
  0.5823613951422316  0.0516820038434557  0.1338933234494129
  0.7395219719878987  0.0474083607705554  0.1325962930641634
  0.9200271552218818  0.0564080635899315  0.1342423790278594
  0.1338451243994238  0.2367748564364593  0.1267502847641909
  0.3054544996548356  0.2521936447386794  0.1306556741191352
  0.4662569009076817  0.2591715624849737  0.1258151991669509
  0.6113578403136327  0.2309608522075932  0.1175327999654599
  0.8036932330664481  0.2251984456536842  0.1342813146925688
  0.9557507942199295  0.2398971632683068  0.1247622363288358
  0.1281139047328118  0.3765378119767995  0.1258843935770365
  0.2939461137422845  0.3966953770403651  0.1154868245171833
  0.4667819284278892  0.4114634206389673  0.1240552593536857
  0.6629572646262537  0.4330372272776084  0.1222332187602587
  0.8065247394166146  0.3910425071770303  0.1347832558968466
  0.9626585611936436  0.3881842220577896  0.1167943047979392
  0.1024817925478330  0.5508702105281147  0.1217433369301351
  0.2813335832967772  0.5698563882857181  0.1100497258289056
  0.4497346523131074  0.5748286465322709  0.1097259336528709
  0.6174264175032378  0.5528226557295864  0.1216576008466087
  0.8096653205386160  0.5776559959450884  0.1210792088875437
  0.9440861338431261  0.5509666991849861  0.1197823909353179
  0.1041432217995949  0.7130171174070457  0.1252877084451647
  0.2461004863182016  0.7117785010592552  0.1195351658345627
  0.4313859291857634  0.7279780285226712  0.1161266137030561
  0.6122311879410463  0.7054785488032134  0.1375346785935620
  0.7671222247252981  0.7296041904889515  0.1096373422234558
  0.9523097360869484  0.7442150661029003  0.1117100719110164
  0.0925490940745550  0.9154588547367259  0.1258091145410299
  0.2488046076305084  0.8937866009462675  0.1083285568315059
  0.4405125688696319  0.9102439489559688  0.1176006674531990
  0.5978048209070514  0.8889588462177703  0.1292187805044050
  0.7491344907922199  0.8820090343251116  0.1280108474063563
  0.9102570142523015  0.8956900187532125  0.1193646264747898
  0.0383086183629290  0.1141794746230203  0.2104367753781623
  0.1937753177505522  0.1032141086085759  0.2190757942043378
  0.3813037742314395  0.1441460833578599  0.2114545899114175
  0.5488911414363702  0.1130058855162399  0.2200329226226784
  0.6991755451261423  0.1149576137213315  0.2115073236667752
  0.8675564678857258  0.1395829809003974  0.2180759647244853
  0.0395093671555445  0.2752528537010880  0.2048270474958065
  0.2037323632165811  0.2767015459119856  0.2113381577319875
  0.3939767525462626  0.3071676845985422  0.2137321584728035
  0.5771710451360859  0.2896157802070131  0.2030389173664442
  0.7274030895189360  0.2823355771798849  0.2097604882224540
  0.8936372133735510  0.3070771320945219  0.2057355686136425
  0.0626257976871422  0.4709736600955729  0.2083193729921866
  0.2178214796125265  0.4461899974543095  0.2015281052538950
  0.3881603194724778  0.4600852264748662  0.2086711707659266
  0.5614634199047834  0.4618984494899400  0.2121741790126894
  0.7058574144788387  0.4437053597765865  0.2109166107451658
  0.8733382720478253  0.4838178883901618  0.2105755181230115
  0.0602126679159765  0.6195052631821316  0.2024200145308951
  0.2279904310347642  0.6118161439978314  0.2014033543490587
  0.4041851257070646  0.6317374904088425  0.1969685782795471
  0.5572818005544248  0.6037086630811364  0.2302528019640257
  0.7325915490305681  0.6262916426614248  0.1972881014270974
  0.9094497648614507  0.6498496947407648  0.1978186148269796
  0.0757860496654044  0.7983598717370578  0.2068998595168172
  0.2618752630116680  0.8083326672500687  0.2042905194431102
  0.4046961446809110  0.7943190825244674  0.2113237707268574
  0.5523808193989943  0.7770511621461653  0.2132274821337570
  0.7328387789371773  0.7813570082765683  0.2084612561032340
  0.9025974591596020  0.7863867786931562  0.1998070285132322
  0.0416365856370535  0.9391663032494575  0.2216392756321992
  0.2184884588981771  0.9536468855773482  0.2000913288605889
  0.3916486772543860  0.9739132894425609  0.2133263598137455
  0.5536927524472858  0.9377899987290380  0.2090833393525598
  0.7346470172895213  0.9779235284249544  0.2233527766093027
  0.8932983416548306  0.9505723672744296  0.2210752610773248
  0.0996423107144833  0.0526529876759841  0.3002872093591902
  0.2665795816019441  0.0380798978047899  0.2878154234855123
  0.4246017075557571  0.0724927072318798  0.2924786948999289
  0.6240663486226279  0.0753758003649945  0.3006820213422634
  0.7935132540865928  0.0539801037070394  0.3040153713854616
  0.9409302077562681  0.0459655293483196  0.2978793486170012
  0.1169761712413977  0.2188234971610258  0.2969837753439369
  0.2970066553643674  0.2055465490327321  0.2934400339328400
  0.4722508802020387  0.2508413715298693  0.2865017684241087
  0.6293270232325369  0.2526297293518447  0.2857792005618190
  0.7960317558399375  0.2162145704849342  0.2943949768897546
  0.9540040883456157  0.2239056596064909  0.2965285480455633
  0.1226108236292452  0.3861382008662346  0.2866181621861519
  0.2888332292352607  0.3696321624737953  0.2815349436730241
  0.4795399859897061  0.4283515551870080  0.2949536052278274
  0.6341746661015487  0.4133405475089142  0.3062375706478340
  0.7811843686871168  0.3740226872776650  0.2826938821078088
  0.9730063077759007  0.3954830528056295  0.2923002749636640
  0.1462271677704358  0.5645809092172954  0.2899948510111798
  0.2839422043904364  0.5370062965410420  0.2929916297781177
  0.4373705646642732  0.5663881221876663  0.2954561983764570
  0.6302460683251954  0.5887459678032404  0.3031352322731521
  0.8029957642323956  0.5674901366832201  0.2978764675578550
  0.9549169918859561  0.5317660694490188  0.3020621823898145
  0.1222998124441647  0.6985359836905983  0.2906017707534113
  0.2865102276804117  0.7231026400224253  0.2857897697412899
  0.4409672674567889  0.7235281353225896  0.2881266050630141
  0.6058562418189891  0.7328499314282263  0.3011051115934092
  0.7885745205853574  0.7338749802909998  0.2797528680700344
  0.9525251442008855  0.7231239325561590  0.2973350100391551
  0.1222934353928015  0.8845330971681888  0.2875084675402037
  0.2885784531874369  0.8853938652555110  0.2859807637011408
  0.4573583223832517  0.9165191980376066  0.2880422180312865
  0.6186328025792985  0.8995918456769795  0.2955653613738673
  0.7682186158351200  0.8831240882206900  0.2894718679891167
  0.9339152710035808  0.8632079352363792  0.2919700636658026
  0.0483948240279714  0.0963914581340823  0.3972631941279522
  0.2355771130215459  0.1021324894499364  0.3771441863644077
  0.4137587276213067  0.1422575037298759  0.3710539329890323
  0.5645850121017627  0.1293700858710584  0.3729962859300491
  0.7306414646308933  0.1181931417841990  0.3834608128862859
  0.8981490937770434  0.0839388057794101  0.3816513932599790
  0.0661434542866802  0.2561608710560885  0.3809955629320814
  0.2063366693392687  0.2639326263988949  0.3698688340377436
  0.3722180133396942  0.2846941098939035  0.3758062640847719
  0.5818781152142197  0.2967255007859173  0.3808637367531437
  0.7171012790804995  0.2583662666434960  0.3654494148287544
  0.9189451087436634  0.2635832492553143  0.3854033536191087
  0.0618985657293804  0.4414740314061427  0.3816283311446735
  0.2056823927359406  0.4275152392215799  0.3716712130959186
  0.3628426210704281  0.4429505881934427  0.3558842759242465
  0.5660024060389175  0.4372252502708633  0.3833811498897981
  0.7639874606589283  0.4502033196377058  0.3751147737288758
  0.8766046862371916  0.3919751049291090  0.3664429185903920
  0.0694967678073136  0.5807216225454814  0.3776670013046413
  0.2317096829431389  0.6158277961858323  0.3740557231492549
  0.3851898111548079  0.6036161657703510  0.3743614079634414
  0.5190872885573543  0.5736303517827828  0.3821560908734289
  0.7343895844917935  0.6060185349954804  0.3813349934184792
  0.9116305424632377  0.6156732170514294  0.3756102035544128
  0.0737418265273688  0.7696767369965758  0.3587756252977409
  0.2355901896985442  0.7872406874417275  0.3646480934070058
  0.4096465558860310  0.7955595586990284  0.3695231414701864
  0.5563124835984299  0.7880812752849290  0.3741777944043592
  0.7275422781016007  0.7859378835733908  0.3804982235048699
  0.8863746190694114  0.7813894120138816  0.3752152095800785
  0.0457549485860854  0.9297603223975530  0.3793255038171826
  0.2097968827068494  0.9358174579806755  0.3775954513439744
  0.3982737775514970  0.9520657429634939  0.3731263625345979
  0.5710930093728497  0.9618940566534246  0.3817734976827282
  0.7247045897783481  0.9385731392713003  0.3749623363182690
  0.9028579386224568  0.9456322873626311  0.3642667200438110
  0.1230515021983015  0.0673319245635934  0.4626503344472660
  0.2723577783569334  0.0442356357864999  0.4612063095399982
  0.4493253878805816  0.0619136249950289  0.4482976906395778
  0.5901465395812936  0.0542319535945899  0.4616223000355204
  0.7368146883794353  0.0236160338702635  0.4606005557464433
  0.9522850542187691  0.0525370139457060  0.4831893016496847
  0.1344786073268343  0.2166111932230388  0.4699012553965395
  0.2791541281552278  0.2226993342664156  0.4618447626673010
  0.4492967312100802  0.2331008647723620  0.4566573928599142
  0.6069079709504428  0.2310809864563896  0.4589059118048161
  0.7563553976502826  0.2066851099533739  0.4629404488995075
  0.8946732022095012  0.1747739641965307  0.4703287548598492
  0.0704800570637993  0.3475070896246982  0.4678987283446880
  0.2829446235586494  0.3817536690397983  0.4502259510365164
  0.4528954711612840  0.4067470143693694  0.4499030662802561
  0.6049067739713522  0.3887229758451313  0.4683641755831158
  0.7650942002109841  0.3668117126876204  0.4541006450341799
  0.9250687995747997  0.3706322159696394  0.4637491646673798
  0.0935076660992670  0.5424514605629367  0.4603222732752610
  0.2519792772894107  0.5225794056206706  0.4607490869847493
  0.4054203943398543  0.5500813327421109  0.4705380131442753
  0.6183340038182766  0.5917256155004896  0.4540288523696372
  0.7703426580385007  0.5514392524047574  0.4553101289098166
  0.9213336469330572  0.5230789470081304  0.4589736446807078
  0.0979702383866349  0.7070777840434647  0.4538889604703752
  0.2676545352609755  0.7002287921908059  0.4552234754588856
  0.4236449401771794  0.7187392809862876  0.4553611425605011
  0.5796343142799921  0.7228867045992917  0.4542398955649651
  0.7974144748102207  0.7311094247217386  0.4550637412046165
  0.9456205945314208  0.7032140868977383  0.4586926978712853
  0.1124345526319151  0.8813598843249677  0.4608032286239196
  0.2757535990903638  0.8873358210305493  0.4490193068961602
  0.4142000772423648  0.8643765925173162  0.4725837489082920
  0.5843398140678261  0.8782298213122528  0.4541028635592247
  0.7943150238798761  0.9043760593107877  0.4571735751885966
  0.9482398450744893  0.8967516174041394  0.4604806179914551
  0.0626142202310146  0.1048508192971250  0.5556211879155646
  0.2627950160790199  0.1430861986723596  0.5425215469337022
  0.4107348054678840  0.1149596676746890  0.5325906023044225
  0.5811239852119249  0.1331529941070763  0.5445208254174212
  0.7205025757129706  0.0994774233764549  0.5451910877954061
  0.8759114544534423  0.0926092141929724  0.5579572060633613
  0.0433917070973753  0.2455543239523164  0.5413853820909850
  0.2421947979584340  0.2752192080375525  0.5399501569806336
  0.4120885938510071  0.2861254170249021  0.5437667942121316
  0.5627761994933227  0.2999665363141415  0.5526356853375098
  0.7274524903672835  0.2771185447140024  0.5500489127794156
  0.9129372114047788  0.2709388898259865  0.5555046897134867
  0.0574318902239011  0.4250044840225189  0.5422427174963198
  0.2128160410585527  0.4098246169585230  0.5354893389176300
  0.3942326176962309  0.4342820858878920  0.5383361631434680
  0.5530654392623580  0.4621782602287235  0.5262073044703518
  0.7417957519105427  0.4547477826116997  0.5481961794679694
  0.8925301660379340  0.4233246167715153  0.5526763366839382
  0.0328190002656263  0.5912276232406661  0.5392573963655645
  0.1951746087125424  0.6008208503087136  0.5329858948094368
  0.3521507223165014  0.6110659891241074  0.5396033851190601
  0.5396130302826871  0.6151661319984358  0.5451211626004274
  0.7189236052985529  0.6074320214555591  0.5221387735827571
  0.8947080159750191  0.6093182201254834  0.5371775569113286
  0.0749398581164206  0.7648797743386442  0.5385282669643059
  0.2399924612551161  0.7791307740118393  0.5476637747407813
  0.4005869977416440  0.7761695570442947  0.5675766193540853
  0.5488000380327975  0.7724145815182746  0.5432707629564938
  0.7008574458877785  0.7757102077223621  0.5250123227719335
  0.9321782746832140  0.7997204429868224  0.5452402423157089
  0.0824880562587337  0.9587802421200556  0.5445797998131107
  0.2376115481109329  0.9532879729900223  0.5485405565267941
  0.3843455232813244  0.9425449585295285  0.5480177670807421
  0.5356860105418076  0.9282309644778850  0.5441375045466574
  0.7039125200353379  0.9232942533514863  0.5399663271337540
  0.8828191604835511  0.9328881358905629  0.5432417519337995
  0.1057111171210986  0.0361340528007607  0.6422696662777064
  0.2849898008654467  0.0604645067918914  0.6353253643653572
  0.4391788883900610  0.0624839181216852  0.6117210479117937
  0.6166785502559344  0.0382072842398579  0.6205096967158524
  0.7790083317311333  0.0319930199231977  0.6301666773767737
  0.9604666288395955  0.0713919929534252  0.6267076671741424
  0.1140542616762844  0.2319067829733538  0.6249529053609041
  0.2590757952078865  0.2035181888860458  0.6227873392971739
  0.4431583428658973  0.2190934027406687  0.6182545352557115
  0.6239911553513909  0.2233573530232817  0.6317200227284404
  0.7769736673490322  0.2115996824007060  0.6254054251692633
  0.9440547646514899  0.2040468751894232  0.6312396842440789
  0.0898810169257136  0.3717438363461554  0.6154960133277217
  0.2824868796727528  0.3576198100571961  0.6216598404007604
  0.4628620304615794  0.3826810324354403  0.6271322331239910
  0.6096803442482818  0.3836852248548946  0.6366760795134631
  0.7725599154360808  0.3951536400930807  0.6244503520366134
  0.9202129768669040  0.3619116170677835  0.6335230057206809
  0.1180410562391749  0.5477836473319960  0.6180653833332388
  0.2642292187596142  0.5180075379171425  0.6184827308593525
  0.4248037597663498  0.5300862597225877  0.6209841713071710
  0.5924203164867446  0.5496688646117426  0.6137815452036824
  0.7706943001359658  0.5719948731493244  0.6178388244784466
  0.9472267579641885  0.5562629361749934  0.6206191659475164
  0.1130310075491178  0.7080485982967877  0.6282318055923866
  0.2721199745420326  0.7180892271406947  0.6297846291076725
  0.4475843964734927  0.7001338723669219  0.6258187692133963
  0.6192856900094400  0.7349568019877619  0.6219740273686578
  0.7702044901469692  0.7280676753809406  0.6081020926641971
  0.9558955274117368  0.7395543562714751  0.6200217055908358
  0.1065443853470894  0.8994970977399460  0.6265166806301353
  0.2577053328947153  0.8856813462230220  0.6299802293926978
  0.4217076389569929  0.8979600301064362  0.6244327673670088
  0.5881540628651821  0.8675267275518180  0.6320047952936629
  0.7752966486008231  0.8842129280222939  0.6283189290846046
  0.9443959473777994  0.9039822529638202  0.6335745732028020
  0.0274989160569465  0.0735553891118484  0.7107164775951997
  0.2390774114642619  0.1069557801624547  0.7213862724719723
  0.3985701941648803  0.1195856459690158  0.7139719528604106
  0.5405124348784128  0.0740856896815913  0.7088547110284091
  0.7150432455581064  0.1171514709884262  0.7113101695607351
  0.8500881333165909  0.0960705260840616  0.7156394945412989
  0.0257331228286410  0.2544881095666406  0.7128551985491425
  0.1901243126414700  0.2461831828159972  0.7103163091847771
  0.3828920834393399  0.2695491188933914  0.7048769457963985
  0.5484867875045037  0.2779816647514228  0.7170834587132483
  0.7478935886672717  0.2910485929287905  0.6938405503794760
  0.8861343162756281  0.2684792647715564  0.7169213936019401
  0.0452526117125990  0.4360827683121412  0.6893718576278518
  0.2124685919801565  0.4026394897312794  0.6948013594575077
  0.3802842302751859  0.4324087572658638  0.7006447744638689
  0.5716589610035734  0.4519276841990776  0.7109012091127361
  0.7487798479355274  0.4641060160437957  0.6987677671893947
  0.8986314748461037  0.4490372949123329  0.7054312379254428
  0.0743424457741849  0.6251880695488974  0.7201086824997573
  0.2026130959046998  0.5802492538857129  0.7040412198934597
  0.3559259605897563  0.6014157492855524  0.7049169073701197
  0.5494166508083761  0.6053304002325002  0.7112450036012825
  0.7225229313893609  0.6065290645203884  0.6976689774891915
  0.9118826660584392  0.6383535179599308  0.6980591930469976
  0.0448740636833369  0.7689155787898969  0.7045042118446057
  0.1972838184896446  0.7835735894455611  0.7060812697908945
  0.3796536747924985  0.7603739795434263  0.7085634869569112
  0.5501687661631838  0.7510240828081644  0.7117813743184777
  0.7109507107514056  0.7728617357027990  0.7008309525310958
  0.8793348318964140  0.7930320167401922  0.7160489152358068
  0.0445132398891403  0.9307337391233159  0.7186256178518868
  0.2237224198296134  0.9619350718508319  0.7208344631748134
  0.3722562912953992  0.9457435938658865  0.7024284174078400
  0.5314396993684454  0.9236804335325483  0.7038564902809663
  0.6885965326342385  0.9274791210154332  0.7201182841528159
  0.8681187275652663  0.9504786624557224  0.7032359177585047
  0.1031794552485058  0.0519020784367265  0.7935190444943742
  0.2948563432545567  0.0599179906625229  0.7992061514607075
  0.4646882021498138  0.0545141856963441  0.7924638696118320
  0.6027699853887194  0.0390505455004250  0.7915860913700965
  0.7517398123708964  0.0322156871716976  0.7988898169303382
  0.9206747165731808  0.0558159383073519  0.7898229710369692
  0.1183868192147184  0.2223143086628637  0.7950699400771312
  0.2785279792102753  0.2259116739799523  0.7895447989725465
  0.4663842590456792  0.2043487147649573  0.7984429171046307
  0.6345253794465552  0.2283601199569772  0.7835343990241004
  0.7740898754359637  0.2025707165252103  0.7863452067754003
  0.9506792879129562  0.2187636081559784  0.7936160025279164
  0.1201535428859389  0.3896914499515907  0.7756093387884601
  0.2927687108391052  0.4047750025412427  0.8045727306250039
  0.4482639514355607  0.3626811797665732  0.7801741026379455
  0.6188450579909217  0.3986534527076835  0.7893496575978587
  0.7811993383620012  0.3908143350174181  0.7806562556262484
  0.9648839159957119  0.3936707759657559  0.7867032016236326
  0.1160745695584969  0.5581180430247029  0.8022205378875681
  0.2765439750820953  0.5543148029610424  0.7864822973682644
  0.4228851001303758  0.5374984008386234  0.7762051906506082
  0.5933435569318619  0.5476315483988329  0.7860498701677598
  0.7779819312202311  0.5396051213453985  0.7891926678770671
  0.9437171319223109  0.5509533611230805  0.7864733041346519
  0.1368590965100379  0.7263926785136060  0.7985722583559783
  0.2787363045333331  0.7102444361917269  0.7849723072661162
  0.4441053339003670  0.7093841489230497  0.7888257210768461
  0.6071049662621061  0.7061994284037530  0.7854505924463996
  0.7875962542768766  0.7060196305185552  0.7973155304883605
  0.9446066535618741  0.6943642816933902  0.7838629887094808
  0.1178734708010208  0.8788399557041595  0.7916259184741453
  0.3023145405763997  0.8962197889183300  0.7928235128312245
  0.4498857844819321  0.8919481096778509  0.7884648744282191
  0.5748020047724184  0.8603724921118371  0.7901536638831427
  0.7772878874660230  0.8878331447805684  0.7951657486640208
  0.9442083177981423  0.8872473002745948  0.7954986656915236
  0.0184067212669813  0.0758954827511247  0.8821268117072451
  0.2111720329939363  0.1126381705583607  0.8753332901469170
  0.3587817143805942  0.1019192974961717  0.8870181837206185
  0.5668694376193937  0.1336347480798816  0.8768731701751262
  0.7106377418123269  0.1277461419989770  0.8759667666271371
  0.8708320562913722  0.1075850152173140  0.8733292700754409
  0.0388967884648698  0.2575058030283213  0.8781910757400885
  0.1852264248718806  0.2398907435680665  0.8800734573456783
  0.3919538955609785  0.2678958733782918  0.8747324276217106
  0.5692682791096729  0.2925505845851985  0.8823020038200130
  0.7116544763759228  0.2758261055403086  0.8686956939911332
  0.8878387608608549  0.2790141357259684  0.8676749117398922
  0.0513833789838692  0.4490132136220684  0.8724460733828251
  0.1966124086816080  0.4095807374750675  0.8735355529134998
  0.3786085599486911  0.4090375499712774  0.8785045823728707
  0.5604303409999074  0.4310105722829055  0.8691917465369904
  0.7435329219884360  0.4345896736236662  0.8851478159810161
  0.8896399031284575  0.4274113385958022  0.8831689615655158
  0.0456925673785525  0.5956564215377556  0.8673371418647957
  0.2528594373382242  0.6559529119864557  0.8688516590880421
  0.3968267904529021  0.5910949031306373  0.8621802696743229
  0.5450352757526854  0.6026839784057799  0.8669580957020246
  0.7133386648239299  0.5932994971634759  0.8736195011015578
  0.8951179871937225  0.6129900609699561  0.8831276079571624
  0.0329117170031330  0.7680153504487922  0.8575200959815851
  0.2321012349152739  0.7922803369128775  0.8699559416797058
  0.4204231184561651  0.7801716025881476  0.8663394525080829
  0.5836325594568111  0.8026281416930275  0.8658906122886468
  0.7046336407747393  0.7525699896109641  0.8715821954474303
  0.8965584082573299  0.7788112216318210  0.8760954234565622
  0.0454442322662050  0.9405589147009676  0.8770745266241772
  0.2107832572564970  0.9497220680696650  0.8732709924222724
  0.3827890043529904  0.9507956720345964  0.8791028024771859
  0.5473204016423003  0.9618995565632926  0.8902323825574843
  0.7248940177554639  0.9732015450160576  0.8916915508154077
  0.8551484220448285  0.9192206904278941  0.8832625255316383
  0.1037815890173008  0.0732365565112529  0.9610689251915403
  0.2517416717693225  0.0564809843773949  0.9569060697291364
  0.4855486576809786  0.0829861025338438  0.9574868911390008
  0.6270262043994633  0.0776487644452730  0.9637241185499350
  0.7981217942923636  0.0866056306600804  0.9685843982697731
  0.9200666779744764  0.0530359940035726  0.9701470895845310
  0.0966991057825416  0.2134769351154776  0.9664069342704851
  0.2739433663402121  0.2168776647648029  0.9535726250458257
  0.4477558373172775  0.2083255005483469  0.9567892225026693
  0.6309560211002311  0.2526651522483851  0.9724546315006072
  0.7763364555737741  0.2287550929473436  0.9501494524337711
  0.9456363377828486  0.2438720205264897  0.9520020614989670
  0.1079127660469098  0.3979528980681042  0.9524765856585803
  0.3054670902913796  0.3973810589333838  0.9571165866271927
  0.4710895508827309  0.3655952803406279  0.9586501585973632
  0.6463834858504042  0.4273992536585590  0.9535446911020748
  0.7970267069989568  0.3879871390493543  0.9696628646091846
  0.9596696752034424  0.4086070812473270  0.9626414451528613
  0.1490454813493900  0.5882469891101064  0.9407536483364893
  0.2913542247060479  0.5525581180854261  0.9432913082907866
  0.4472620882544372  0.5534885832131330  0.9542072125158787
  0.6021009121054687  0.5522040071935347  0.9554534149251805
  0.8110494257534725  0.5678208026166038  0.9605608227792921
  0.9729476702818469  0.5656882608229232  0.9571937976427948
  0.1200105584830961  0.7416621608041009  0.9478835186653006
  0.3116606597421099  0.7628094339914530  0.9376150402457477
  0.4403416003380767  0.7154629476637644  0.9436140744826849
  0.6074737909731722  0.7206562702064317  0.9551176988039519
  0.7709982643633098  0.6983666071690534  0.9538037425122906
  0.9433174111610209  0.7372761253073306  0.9572319073599652
  0.1008432111427095  0.8921113753961005  0.9530296928022606
  0.2761364360689126  0.9115820272247374  0.9535675461826360
  0.4609101123236514  0.9111070010730427  0.9656972722422950
  0.6033790338754026  0.8892467430539751  0.9602671893168405
  0.7546121117005056  0.8971755655195229  0.9638134602634798
  0.9133626279366450  0.8861198951831620  0.9517459838417228

 -0.91776702E-03 -0.72506844E-02 -0.57520762E-02
 -0.24883550E-02 -0.76722120E-02 -0.87682621E-02
  0.74360061E-02  0.30721658E-02 -0.22647711E-02
  0.16571354E-02 -0.50430605E-02  0.53494637E-02
  0.13013972E-02 -0.10402376E-01  0.27840572E-02
 -0.71988035E-02 -0.66465845E-02  0.53629472E-02
  0.12226580E-01 -0.94278339E-02  0.42488794E-02
  0.60011405E-02  0.58953082E-02  0.59867730E-02
  0.56418448E-03 -0.39060654E-02  0.37568748E-03
  0.80527737E-02  0.21917489E-02 -0.12751012E-01
 -0.59303822E-02 -0.63528953E-02  0.39763388E-03
 -0.47921562E-02 -0.93863210E-02 -0.47301104E-02
 -0.42689602E-02  0.39260992E-02  0.22130599E-02
 -0.16340584E-01 -0.59591680E-02 -0.10014764E-01
  0.10155096E-01  0.39037261E-02 -0.25598713E-02
  0.38352451E-02  0.29027634E-02  0.46577819E-02
 -0.97591554E-02  0.24292457E-02 -0.63429188E-02
 -0.12237078E-01  0.26737405E-02  0.10191728E-01
 -0.10987096E-01 -0.81519485E-02  0.82665059E-02
  0.63686211E-02 -0.18294264E-02 -0.65432203E-02
 -0.32865871E-02  0.74639834E-03  0.11214064E-01
 -0.34907095E-02  0.33662385E-02  0.81223337E-02
 -0.37776478E-02 -0.57995130E-02  0.20014109E-02
 -0.32153402E-02  0.15402668E-01 -0.72097638E-02
 -0.17031620E-02 -0.27565418E-02  0.10877397E-01
 -0.26100478E-02  0.27836321E-02 -0.28799247E-02
  0.19787090E-02 -0.15233790E-01  0.16175641E-03
 -0.27327521E-03 -0.37556961E-03  0.24810947E-02
  0.61251909E-02  0.11586930E-01  0.72737935E-02
 -0.72580714E-03  0.67272329E-02  0.69482558E-02
  0.46149681E-02 -0.37635322E-02 -0.30123194E-02
 -0.39443828E-02 -0.11580642E-02 -0.16032194E-02
 -0.29023472E-02 -0.98528480E-02 -0.55117800E-02
 -0.31797095E-02 -0.24898517E-02 -0.59036743E-02
 -0.42681227E-02 -0.64709545E-02  0.12910623E-01
 -0.65101384E-02  0.79585609E-02 -0.39742167E-02
 -0.67193582E-02  0.51752140E-02 -0.88321345E-02
 -0.27801474E-02  0.34952118E-02 -0.43884753E-03
 -0.87004536E-02 -0.15464146E-02  0.68647313E-02
  0.71624702E-03 -0.55947972E-02  0.36066663E-02
  0.26315271E-02  0.24881743E-02 -0.36845451E-02
 -0.65756793E-02 -0.16818642E-02  0.66467119E-02
  0.69810224E-03 -0.23422606E-02  0.47044068E-02
  0.12471156E-02  0.62677589E-02  0.89118457E-02
 -0.10374166E-01  0.92365681E-02 -0.15298687E-01
 -0.95052825E-02  0.11545459E-01 -0.99082041E-02
  0.67207203E-02  0.80221846E-02  0.31224095E-02
 -0.35737690E-02  0.35406364E-02 -0.34747025E-02
 -0.12414523E-02  0.69324413E-02  0.21269764E-02
  0.95371568E-02  0.47829860E-02 -0.10703280E-01
 -0.91598374E-02 -0.12002784E-02 -0.19009949E-02
 -0.29881782E-02 -0.11379101E-02  0.26208610E-02
  0.80824841E-02  0.60786486E-02 -0.10981856E-02
 -0.11318192E-01  0.39954706E-02  0.19322759E-02
  0.92229998E-02  0.32384319E-02  0.52352640E-02
  0.14925394E-01 -0.91902968E-02  0.20317277E-02
 -0.22918491E-02 -0.19174254E-02 -0.15499195E-02
  0.51365540E-02  0.25242919E-02 -0.38981001E-02
 -0.27879330E-02  0.25311296E-02 -0.42337762E-02
  0.10110171E-01  0.33800466E-02 -0.12211007E-04
 -0.82797976E-02 -0.67797890E-02 -0.82172780E-02
  0.33931896E-02  0.11454452E-02 -0.43819388E-02
  0.47774827E-02 -0.77285002E-02  0.65071712E-02
  0.94842376E-02 -0.13477506E-01 -0.18088604E-02
  0.68847425E-02 -0.85657934E-02  0.13777410E-02
 -0.81752960E-02 -0.51478125E-02  0.74617740E-02
  0.12713181E-01 -0.38165117E-02  0.18239351E-02
  0.39195059E-02 -0.57088568E-03 -0.90807195E-02