super cell                              
   1.0138007551464026     
     9.5160698588808970  -16.4823164839565095    0.0000000000000000
     9.5160698588808970   16.4823164839565095    0.0000000000000000
     0.0000000000000000    0.0000000000000000   30.8472293999999998
     432
Direct
  0.0108865593630590  0.1037228555166816  0.0401798817564485
  0.2342156094119791  0.1242466362904859  0.0350634226285237
  0.4005439734341635  0.1247724314093817  0.0424613560952064
  0.5625386548434645  0.1257184848228144  0.0408297745199385
  0.7156481823681264  0.1156370181268686  0.0534415276195317
  0.8783990993311058  0.1390273311066946  0.0360628922315945
  0.0627953548183522  0.2931852926657956  0.0507255143991882
  0.1936497504280776  0.2541788538799439  0.0373999999694827
  0.3547169909096946  0.2780103827257832  0.0568435092353246
  0.5564734910473557  0.2838857855752833  0.0391726677151013
  0.7324681377202450  0.2884150154308944  0.0314123651082936
  0.9166073259752699  0.3112159111811333  0.0498858556613618
  0.0703022498288787  0.4754471190915095  0.0424058524409716
  0.2233681628510308  0.4590731784680030  0.0463865468836019
  0.3760124775260696  0.4436163593826393  0.0331409871311037
  0.5645003012401942  0.4627875763273807  0.0304759147844244
  0.7391496013201790  0.4597812431084229  0.0336464770829466
  0.9089987199930477  0.4617380279017379  0.0329342077533059
  0.0672856549195979  0.6394283124627018  0.0471333761659565
  0.2311534953318000  0.6415703093319446  0.0378785663805707
  0.3763575819569049  0.6270821383860820  0.0409836541816544
  0.5384716894299488  0.5975738686797623  0.0339093905192815
  0.7265882597526160  0.5846860817795485  0.0423283036170982
  0.8902737073966538  0.6093226840261599  0.0356638302765151
  0.0300444789420837  0.7855993082299317  0.0544700224517012
  0.2232517314417974  0.8052886820477934  0.0396763779696869
  0.3900055016474860  0.8186571346118290  0.0404353598240278
  0.5651381937980184  0.7919180735806596  0.0528187759845413
  0.7074852981653961  0.7470805868166954  0.0321863676799906
  0.8559828498309713  0.7417348106964352  0.0475502184453289
  0.0301080263033419  0.9362906488658008  0.0458264488178940
  0.2349557924231356  0.9672731040489942  0.0482278138094709
  0.3818124051827922  0.9560113622480038  0.0405989373199150
  0.5549315906629612  0.9752680427960245  0.0423907906750452
  0.7081384162980418  0.9337639229676210  0.0473144415188441
  0.8751146621592804  0.9320263750578204  0.0368987329765207
  0.1140533204145823  0.0785827530929981  0.1120184446395457
  0.2831902452979652  0.0595124752489631  0.1301355848352871
  0.4483650961681576  0.0618008488479871  0.1244956050796714
  0.6370031199135665  0.0660109186688553  0.1387583071569987
  0.8028482696636283  0.0503897836190880  0.1219369291277328
  0.9348933472651362  0.0232510602390836  0.1203191367296202
  0.0697693346272269  0.1977901735505119  0.1264479037913110
  0.2750754780681626  0.2120709636607660  0.1283328802612095
  0.4540132162135290  0.2182090667484829  0.1286388411203110
  0.6101633908901877  0.2431782612204849  0.1171926762878386
  0.7870655666726479  0.2348817196771024  0.1258435231255235
  0.9375564316273883  0.2304146893144390  0.1273511074067470
  0.0883886314482547  0.3860717199919222  0.1306700871011835
  0.2255990645184798  0.3549744417622889  0.1247162306816521
  0.4349265815812192  0.3805381815971700  0.1185390972740860
  0.6133306923360745  0.4053908121380561  0.1216920238617060
  0.7785328923543351  0.3933347041400194  0.1219386336076164
  0.9344174386230689  0.4041676369254918  0.1251445130065845
  0.0866510573785539  0.5383174008357129  0.1232562424110307
  0.2608584034769471  0.5709043525804911  0.1288656145163530
  0.4231200365169841  0.5624293005989508  0.1156211460581732
  0.6300573708001105  0.5807576101661726  0.1213282304376127
  0.7862970408393394  0.5407052872678652  0.1172523755941294
  0.9526043726026465  0.5848451348526710  0.1169929905513248
  0.1219088209002782  0.7588608809068194  0.1306528326574108
  0.2567527805396367  0.7299295433120120  0.1245579011366103
  0.4294055527820010  0.7453764132623683  0.1137121041590991
  0.5948762243113760  0.7189346251368769  0.1280715845067617
  0.7819610105818299  0.7276494535483558  0.1269531905378542
  0.9449111703578614  0.7360409411220042  0.1370057516240039
  0.0986541189955160  0.9133510402271999  0.1201384117346727
  0.3008651496815156  0.9038243369631346  0.1378195025034829
  0.4768363427557539  0.9252713214592360  0.1382075350478956
  0.6133058750939850  0.8787659046930265  0.1369699500969496
  0.7609334104967643  0.8632497918612284  0.1164840585662965
  0.9384406627704274  0.8788647058326396  0.1388050217169186
  0.0447775929205779  0.1074418292605907  0.2081833042306833
  0.2470738423891940  0.1139226388098047  0.2064304559179334
  0.3831729029554711  0.0800694615956764  0.2129426156157923
  0.5562063261579396  0.1100149933566577  0.2021441819704568
  0.7158483414811285  0.1235711187382598  0.2179385238784698
  0.8730089230849393  0.1077276019222637  0.2111988965225070
  0.0603213020926140  0.2666924277778941  0.2086724126857631
  0.2061897432410996  0.2514368208301768  0.1987350908477919
  0.3790681910565818  0.2715426908150696  0.2145390892186500
  0.5707993652462612  0.3036308712821614  0.1983787776648259
  0.7184792287063013  0.2827206754501903  0.2069619845406906
  0.8965062013758068  0.2709665243587285  0.2078598669158414
  0.0790499569377794  0.4625784055724655  0.2179749807678510
  0.2021633977859673  0.4169744885255025  0.2117588449714330
  0.3809533640053646  0.4296617167610952  0.2019081734364501
  0.5667782421600478  0.4534277665921848  0.2178999149834227
  0.7357419850872231  0.4625962425278295  0.2069559786604317
  0.8739163850075580  0.4214032412159265  0.2021559966081394
  0.0427952742353898  0.6202310765562109  0.2042345399372705
  0.2121655976695319  0.6282283051870567  0.2100282131153242
  0.3688210348354211  0.6005722811969240  0.1979876273154907
  0.5331827673636047  0.5856659603389655  0.1989492166301220
  0.7182080066905305  0.6021370484348252  0.2102893337398342
  0.8829886542356019  0.6003709167021423  0.2088924802667676
  0.0499897812211209  0.7876396202898712  0.2109488641203331
  0.2176263784309301  0.7870728882692972  0.2146650954807214
  0.3709768927723737  0.7831774132165107  0.2051688422315909
  0.5148320568663213  0.7568933890033422  0.2060702231884602
  0.7402837640857289  0.7968417517899258  0.2042250747960961
  0.8736955898297371  0.7857590379231669  0.2118146823654184
  0.0573961391932466  0.9661478403613438  0.2043689172918115
  0.1954732568266716  0.9287326376522612  0.2173421778859138
  0.3887955255746566  0.9343092533852706  0.2174537454362436
  0.5583703405563830  0.9324133076395573  0.2137193053956339
  0.7026810114182441  0.9460012709064487  0.2059917988111058
  0.8823955309654438  0.9650917331629052  0.2084233564713517
  0.1042047219249085  0.0486002514326258  0.2950240046564674
  0.2817106242913190  0.0643066667504448  0.2886514566505978
  0.4543455420457319  0.0588849237128581  0.2907968752287167
  0.5961323886567546  0.0441239941334619  0.3027064068687589
  0.7605593138292628  0.0534350598824609  0.3118588503240869
  0.9376836243298371  0.0513979142545482  0.2947866444246775
  0.1000397690498401  0.2087923512698155  0.2958457647520070
  0.2606629005120189  0.2157126949345639  0.2972263309204403
  0.4473666000638213  0.2234249731846179  0.2817433987202590
  0.6081419343243254  0.2231751582983067  0.2907967147985445
  0.7699742928480320  0.2382061049255514  0.3011971729526196
  0.9304200511898808  0.1994688429436582  0.2927776724559931
  0.1121139483802870  0.3758584046569339  0.2991670920371625
  0.2832600808220532  0.3734657294586957  0.2899985258782288
  0.4446088984974063  0.4038519734241308  0.2853766264443717
  0.6150375628080579  0.4010305294130424  0.2959545670129055
  0.7546268945762348  0.4086318742851180  0.2969264335740922
  0.9396014369260965  0.3633115056798334  0.2977011747763081
  0.0690510265275535  0.5343102834703843  0.2954538866711759
  0.2523782834651143  0.5579183833808500  0.2799681263017616
  0.4284968514911133  0.5614299981814914  0.2759590368133678
  0.6099425019000653  0.5610629992086017  0.2878512934899048
  0.7659751029891877  0.5742836710057196  0.3036298830414051
  0.9200911556817815  0.5497890001767467  0.2871776153450064
  0.0744508748733510  0.7017602068570161  0.2843165811046441
  0.2515066241591385  0.7158695118307199  0.2919882125666909
  0.4154246576247437  0.7098587543478579  0.2938895388316191
  0.6126872260554783  0.7215460882086910  0.2763279402845478
  0.7673725878410979  0.7333578145993388  0.2844146702072287
  0.9326665452331204  0.7143265176720885  0.2793409623515808
  0.0941138501428584  0.8952071036045802  0.2909700041011859
  0.2670851813589591  0.8911094463310846  0.2980575610749058
  0.4360095700596907  0.8758066719635187  0.2948105998616689
  0.5954482624108088  0.8848815575010434  0.2866237823892018
  0.7852501441393135  0.8992506905638290  0.2834687943542763
  0.9541696432202305  0.9071432869988788  0.2862051757984701
  0.0324765858691264  0.0948785611838978  0.3814475243492113
  0.2284891624945002  0.1148948566576634  0.3770998510912071
  0.3848870597369335  0.1020300023872048  0.3739542259046145
  0.5542948270614502  0.1192448627012099  0.3846995489828510
  0.6978860156927801  0.1131751658877531  0.3856621238642127
  0.8710606945616378  0.0822615374032085  0.3784346336831800
  0.0722579715410241  0.2701027546260375  0.3766357171526385
  0.2315796437303380  0.2609455519653690  0.3805283507321852
  0.3923317706648106  0.2506103158998729  0.3673336783876741
  0.5469391199982061  0.2669291946143819  0.3704770343044187
  0.7177162540193712  0.2910817122325687  0.3842561213076003
  0.8941493444687328  0.2651103968609755  0.3869199398621468
  0.0606639106854471  0.4274040258103154  0.3786749527204834
  0.2606196763986952  0.4403439197831343  0.3662472213141717
  0.3936821126494446  0.4160474096393493  0.3690871397415907
  0.5618425465978958  0.4490917784463322  0.3796113219692414
  0.7340833376848955  0.4544318705140318  0.3858336458251362
  0.8916069500115983  0.4143366167916651  0.3765586422531857
  0.0372621204052395  0.5788089510471390  0.3796106675356128
  0.2173253131874633  0.5884753747708270  0.3668463167458323
  0.3841866177626305  0.5990095995632323  0.3666650265179632
  0.5321105002553870  0.5758311641937779  0.3731288691920726
  0.7345905705668486  0.6115414202208367  0.3895440592077219
  0.9038928082129097  0.6255278648663400  0.3722967989106331
  0.0478644108276809  0.7907353929413201  0.3754207393350013
  0.2012972117739721  0.7610529841057299  0.3705426764307747
  0.3720818647378815  0.7639447317713545  0.3652753081301644
  0.5332632085247044  0.7751685871742122  0.3630817634610126
  0.6958460629570778  0.7516528290839012  0.3682560548576107
  0.8822770621193332  0.7704146615529444  0.3580912992359080
  0.0455485659057843  0.9528571820118368  0.3764703453069184
  0.2061836976589073  0.9426313762955225  0.3735283404344084
  0.3999771736248859  0.9504121786613330  0.3692574198106496
  0.5756673441718742  0.9511511408310591  0.3830233399001716
  0.7105190851111695  0.9290451397068067  0.3790710037335009
  0.8729819473872511  0.9124501531642052  0.3716323896218418
  0.1068395495413378  0.0418615107770132  0.4593377160733603
  0.2829240545632041  0.0411240328953333  0.4631985636710718
  0.4668401644604511  0.0461309953052553  0.4671708552688729
  0.6235483330402757  0.0337982338918333  0.4658609276072571
  0.7675345867645003  0.0129687081092456  0.4644770793738021
  0.9418775165873016  0.0262736506224134  0.4775811692120518
  0.0904069334948726  0.1956766850632003  0.4603547681196194
  0.2703985442128345  0.2164490876645243  0.4584173084011434
  0.4308551556472401  0.2182466586061074  0.4567311339417773
  0.6063200406758907  0.2411700375433170  0.4663742116568700
  0.7705963948495734  0.2148779049761618  0.4614963719137142
  0.9354973523557144  0.1998245613102055  0.4609161517831322
  0.1084030380042516  0.3682761129548254  0.4486563740538174
  0.2686012650895213  0.3644942930751248  0.4502507784974959
  0.4344668283856942  0.3666693417175952  0.4535773638003426
  0.6037905456712587  0.3812854351874597  0.4496109235258078
  0.7809205985667423  0.3840712080362658  0.4632549268613168
  0.9527539817008032  0.3700707931310164  0.4645421601191843
  0.1146067686807908  0.5341502334721708  0.4552508305914963
  0.2643736922294060  0.5304576811800465  0.4551950135255861
  0.4192658786449727  0.5048319130401763  0.4510995083389159
  0.5988102756438721  0.5430938686399434  0.4629162758402692
  0.7672785597502702  0.5377720016265420  0.4761290464048100
  0.9128910574292820  0.5301385044250823  0.4522435238095188
  0.0787235788781569  0.6876406989555524  0.4546319847013740
  0.2737871558867901  0.6884518587278613  0.4573186159476045
  0.4251534635082963  0.6707546374396229  0.4568266333491305
  0.5988523614705822  0.7252464738004414  0.4605222174107907
  0.7548990922668154  0.7085667033300543  0.4675038855853788
  0.9332132116280810  0.6975703165688264  0.4567477938057704
  0.1170124962292545  0.8792337185662351  0.4572673136485190
  0.2852637181570052  0.8799397731848551  0.4411440800758608
  0.4344949561931601  0.8550073632941079  0.4511404268754104
  0.5926293137852341  0.8674318449868189  0.4519469380182927
  0.7795036385648292  0.8630142374356652  0.4655821201995514
  0.9222844960767381  0.8577521126909332  0.4503003058842934
  0.0692640197136855  0.0975564614796176  0.5462272218094668
  0.2221179574195118  0.0956051219222988  0.5342257423697032
  0.4047730864496769  0.1161229541772561  0.5374276861186018
  0.5622259970402763  0.0892528900632909  0.5405804372790833
  0.7408181226891269  0.0924880547017943  0.5371066478947510
  0.8897152927764983  0.0765525529939137  0.5550170513365555
  0.0586223296090201  0.2803628168618727  0.5386983041057675
  0.2210998847284281  0.2941448087838148  0.5365664780294077
  0.3959258743471500  0.2721349292412264  0.5439833677364492
  0.5599256529242207  0.2887418267420587  0.5435487817971052
  0.7062952677973674  0.2561133217622619  0.5418168452294340
  0.8780015374282117  0.2478914953079529  0.5515628974266333
  0.0704457301102743  0.4541652821355198  0.5366730442017316
  0.2175272852178413  0.4287128776227330  0.5356506309282181
  0.4098499642798857  0.4246504246820346  0.5309310891531831
  0.5981652557999658  0.4559585647272550  0.5509099080123598
  0.7331468272151731  0.4133290436972166  0.5403503689850100
  0.8854703127755226  0.4079326682353921  0.5428112467329067
  0.0372740038801378  0.6010014334252700  0.5371734264849236
  0.2467201763933296  0.6012978257752511  0.5386388956450048
  0.4246498381379005  0.5860229951196708  0.5396618884473107
  0.5830627613186196  0.6162217684175834  0.5551651259205819
  0.7251093388191855  0.6164349857676834  0.5545042409748798
  0.8717335403784421  0.6023714359818040  0.5547981139856294
  0.0364693745848933  0.7540143736052859  0.5413790090722912
  0.2095097981735639  0.7616722633869633  0.5317106539548337
  0.4004587222213795  0.7948531007505518  0.5332705975969400
  0.5377430116308496  0.7434436009477249  0.5463350045368940
  0.7085996547283337  0.7652759122871131  0.5423317897923673
  0.8807013406907140  0.7683690661542499  0.5458088503488822
  0.0388536427399144  0.8974901544453021  0.5303467463111575
  0.2088338343817029  0.9140874050772203  0.5371538680488963
  0.3712838266492453  0.9296652878747615  0.5453555710125313
  0.5585670746201137  0.9247572733533148  0.5366823804105836
  0.7027528074646479  0.9232005411525256  0.5557218944668446
  0.8747503578679892  0.9184747860826061  0.5524413529501478
  0.1439729873421981  0.0436390689053777  0.6186851528112891
  0.2996556638734221  0.0312572917094152  0.6155185043502727
  0.4463769835437498  0.0414550769843552  0.6115809621167744
  0.6018556647561627  0.0412947483081976  0.6297865118520987
  0.7914607709617931  0.0576175669956768  0.6289083114167539
  0.9633926759995552  0.0393009240194077  0.6373702183114550
  0.1230609409715550  0.2205892747049148  0.6235131141442845
  0.2826898432092703  0.2309229506739240  0.6159231714855283
  0.4673231631003346  0.2342824407296851  0.6216673781245474
  0.6031509990301510  0.1954232370013800  0.6204005020211217
  0.7541793980299271  0.1899120320136187  0.6217907687160847
  0.9510208747900196  0.2107028870462972  0.6128690132824746
  0.1136418683598873  0.3820807770790662  0.6219206032148415
  0.2994093687265429  0.4144521255826870  0.6282049167795380
  0.4541382371473502  0.3921482864140992  0.6215814143583372
  0.6350153898473503  0.3817246341239255  0.6178505787531766
  0.7837918662947113  0.3878628057213496  0.6211811325410863
  0.9408619263450823  0.3743787099369860  0.6368274724406503
  0.1234947427824540  0.5510181853986734  0.6104211553392080
  0.2871499390923354  0.5790140276493034  0.6339077595016583
  0.4427725942419905  0.5655722871649362  0.6296454209898283
  0.5956965107323307  0.5429451237436215  0.6337729291696548
  0.7473687133228816  0.5577931536234384  0.6350986808595817
  0.9317580948154579  0.5457405307489592  0.6300692532366096
  0.1080670522516954  0.7047742413921181  0.6192158764778914
  0.2955357512520085  0.7223347399120565  0.6098614231274042
  0.4465869470814960  0.7319215614028943  0.6353152619343336
  0.6153868249779564  0.7423493814154232  0.6349085596567667
  0.7668996232113995  0.7205777067987054  0.6253630417021812
  0.9517234704490282  0.7032400396635652  0.6293719791162049
  0.1376419901682118  0.8836266266708249  0.6264933889958257
  0.2683817569911400  0.8486413172609311  0.6278921296292339
  0.4412710017507953  0.8824533683241894  0.6285564043635363
  0.6145602654912543  0.8876478457809019  0.6405157258524811
  0.7726545573825889  0.8887177284113610  0.6319717269779859
  0.9491129186098597  0.8682589149234966  0.6301677164740216
  0.1044221412996364  0.1325380742885384  0.7147876986052122
  0.2473169271025615  0.1169233626013224  0.7011067028502571
  0.4053352730126000  0.1152161508696102  0.6963176461221096
  0.5639714908574018  0.1160407278763960  0.7036984620815665
  0.7295626468987501  0.1123968704065708  0.7085398523658546
  0.9392166634394017  0.1330304030873116  0.7070966050127230
  0.0849340303892602  0.2900441049377369  0.7072315612404705
  0.2599148347754971  0.3068670948998414  0.7051624450253210
  0.4233763335872335  0.2919805726576559  0.7080405455708599
  0.5811177082714957  0.2701837258876281  0.6993580080909526
  0.7427794632533632  0.2800057209729757  0.7104880422006653
  0.8981571600266313  0.2762456032961623  0.7042320339111640
  0.0635088882998391  0.4426175722101400  0.7045603598018836
  0.2308357936732412  0.4515944736612226  0.7181234572497884
  0.4154728881346686  0.4608276990607273  0.7099935567881888
  0.5776412097235268  0.4469645068206656  0.7197453109785928
  0.7393536408489283  0.4388919214406151  0.7145203161705755
  0.9213005046294267  0.4637504346912755  0.7099460217299148
  0.0641885978802353  0.6392584952784800  0.7043622792556098
  0.2016074074324511  0.6175651932208507  0.7035646363647130
  0.3899243892396690  0.6167128385020135  0.7207459294772567
  0.5676560030722576  0.6381997822632892  0.7165073012865936
  0.7221965753955163  0.6276810013548861  0.7134233818748337
  0.8785519816494167  0.6123615759959880  0.7054357531342881
  0.0497195610550133  0.7745708845042387  0.7060213002036966
  0.2344484661054312  0.7957541748940512  0.7177438754289989
  0.3737708741529829  0.7932063257278662  0.7061738671673650
  0.5408906603809228  0.7868147850961058  0.7194908669937788
  0.7177103224047530  0.7897322311545792  0.7126744638258610
  0.8948809295576164  0.7804042926932803  0.7140517649356585
  0.0735747549436001  0.9723274224308993  0.6988689206692215
  0.2048430846012725  0.9424312080378157  0.7161867098356404
  0.3933162855325963  0.9615844845873770  0.7042835091705771
  0.5627111313567993  0.9633344453175713  0.7094197264231704
  0.7501849147091642  0.9789316860423742  0.7168497956093222
  0.8844756853186604  0.9394857162678815  0.7082233742451544
  0.1280567930736699  0.0668801941549778  0.7855539883414827
  0.2798547419596480  0.0618276538808045  0.7930885677944828
  0.4356003536069775  0.0601516486867902  0.7829699263499980
  0.6177129379568127  0.0709903312099314  0.7857814091322801
  0.7906100843490562  0.0605350109379079  0.8002939914968458
  0.9482988374285286  0.0463089768706280  0.7920278178056177
  0.1241837537953073  0.2285243175410233  0.7820015396718976
  0.2974617359733781  0.2201667457488878  0.7742679947821661
  0.4534419129595756  0.2313685257475394  0.7847702815417584
  0.6097077461843340  0.2434264265923126  0.7899025642768589
  0.7903044414907801  0.2191533221959233  0.7935297912063592
  0.9561055691501936  0.2166932785265200  0.7820907870942153
  0.1112242653320770  0.3814814243036206  0.7931838798460779
  0.3029958412335939  0.4164690397513487  0.7901260363389795
  0.4410360677601813  0.4002461681325458  0.7874814795753483
  0.6241890316707803  0.4125624100414763  0.7991042874417771
  0.7710373475776928  0.3852774087530102  0.7930201406154663
  0.9434675981589405  0.3820549575681395  0.7882772550858024
  0.0928271180347439  0.5453557276678792  0.7839153738403416
  0.2568437572830255  0.5526831790926284  0.7877776113891755
  0.4510703496391394  0.5675363986935784  0.7939128244702442
  0.6157775823738959  0.5675894064418834  0.7946885423332760
  0.7866060155905310  0.5738719368787257  0.7902552005851657
  0.9375767750590364  0.5509556899455964  0.7794869793960322
  0.1261622933087075  0.7439988200848837  0.7908388337082474
  0.2659431444378565  0.7182225195039058  0.7906235213342292
  0.4382661343563586  0.7428964046660770  0.7923407949070163
  0.5897843105561519  0.7156455572090127  0.8038631132216802
  0.7935009006759312  0.7552057160010316  0.7894318461865599
  0.9551452129656752  0.7224311598852644  0.7871234009101874
  0.0898420038881437  0.8798676225424894  0.7912286787656442
  0.2529320056001610  0.9011497190055745  0.8051000054716611
  0.4200183815896321  0.9082830713131461  0.7925126477502673
  0.5986595885799735  0.9155716938971282  0.7898833848937052
  0.7589283764430813  0.8833148182322046  0.7968617240049558
  0.9531694615027829  0.8974305094792112  0.7846537645348226
  0.0813259429058350  0.1409436105772250  0.8639102235893726
  0.2347294277211880  0.1339239296863705  0.8692154470792526
  0.4054472444682354  0.1225836801018441  0.8779779659378006
  0.5611537517616945  0.1083710532169188  0.8763412498113718
  0.7233491958159702  0.0895014198801274  0.8684529154787775
  0.9065390794252535  0.0999946709737455  0.8814716184764068
  0.0466764407462469  0.2991994452727018  0.8802782489859633
  0.2382348962277863  0.2995737052007332  0.8590795542380220
  0.3856936098633619  0.2739284214944110  0.8609592324956413
  0.5598306099522803  0.2977445515403440  0.8726208001820484
  0.7203606016092821  0.2541219302815917  0.8712467011908724
  0.8859966457553679  0.2870703192801081  0.8856441114816825
  0.0590322080777528  0.4558913082611464  0.8756087879985470
  0.2096079722994106  0.4481132326625577  0.8821273694092355
  0.3709215599148822  0.4465140211507982  0.8776277804272254
  0.6007504807481694  0.4628192469368435  0.8759835780619075
  0.7602118918269870  0.4632187946527282  0.8788384744404378
  0.8998834054301384  0.4550038216115653  0.8641016155272889
  0.0726079838509047  0.6324308579705146  0.8601032126177920
  0.2402395596747008  0.6357078298045823  0.8793997779385815
  0.4052364029344899  0.6256627074319200  0.8687439543961420
  0.5351128355941996  0.5915912669789029  0.8846486852462012
  0.7494176656385376  0.6295402807498933  0.8702695240023841
  0.9222169497597767  0.6423668303403860  0.8734154373156465
  0.0998481244388514  0.8041449300281972  0.8810581224944909
  0.2447174905919117  0.7909200887794158  0.8721467880238553
  0.4180616279811512  0.8041779512818099  0.8707095570969361
  0.5575570176332162  0.7691229777535097  0.8851196459390210
  0.7034089978710567  0.7398931686413778  0.8759141970327903
  0.9027456635433482  0.7894151028375899  0.8795159341329315
  0.0649347097615399  0.9832665922119052  0.8800716727874106
  0.2170357738885058  0.9761121195015001  0.8837360008719262
  0.3918123207599270  0.9537976443929079  0.8780956523326439
  0.5685113846247971  0.9493504966513937  0.8822551099595348
  0.7111310100222172  0.9234615975627032  0.8738002745232305
  0.8797912820126523  0.9239101534417801  0.8687553844998704
  0.0968006876346565  0.0756606551767160  0.9641843321829888
  0.2998784807663070  0.0848003683864286  0.9567388056428513
  0.4668763765682418  0.0732170507893642  0.9648347518495537
  0.6326756166348118  0.0889149000415595  0.9562968602342157
  0.7877268356299532  0.0671926409818245  0.9507393329283701
  0.9309773212118443  0.0552054726426816  0.9567906003508293
  0.1191249237435652  0.2494048512636055  0.9515469778583436
  0.2653791389499377  0.2408698150364218  0.9450756419557700
  0.4184695761584035  0.2681218994054861  0.9745142601311554
  0.6254459919699921  0.2403425814833464  0.9559382230217728
  0.7854894513499744  0.2236374575241828  0.9607091069389809
  0.9461243839642342  0.2234116374124612  0.9600736793067670
  0.1162917901298444  0.4141584912527402  0.9685136375408120
  0.2599871217849294  0.3946101448081696  0.9591685503293003
  0.4760695627549577  0.4301419559394202  0.9360222606846922
  0.6097020939719000  0.3854164715153642  0.9591320367714029
  0.7869826380108558  0.3769348647999442  0.9466004447182462
  0.9636844569222077  0.3989866393110356  0.9602032544628810
  0.1074097762682924  0.5599039154859808  0.9455362183906832
  0.2773437067347309  0.5715799745644617  0.9568387367519660
  0.4268235984409542  0.5453889345998690  0.9582588274857959
  0.6468293195005999  0.5790384574191310  0.9488125624237034
  0.8025000152859258  0.5691955441732393  0.9553062019459421
  0.9691420891977350  0.5755597259945318  0.9551267116525892
  0.1130234819542478  0.7320150032828876  0.9613684015764331
  0.2721110424461865  0.7314035638567784  0.9612964339939497
  0.4541152490380323  0.7574452899026470  0.9596355798555889
  0.5956230100270995  0.7079095762852765  0.9527614251673493
  0.8033954532728342  0.7262938625622198  0.9596190103306321
  0.9644753651109891  0.7289516183227661  0.9664455789869071
  0.1215224124564018  0.9199908624809586  0.9737253472129132
  0.2640687296773375  0.8963639668642719  0.9598826700726009
  0.4782566542543847  0.9237632839044271  0.9551095879990329
  0.6271416515749247  0.8931118915666745  0.9629801735648856
  0.7707813810271757  0.8698019336632979  0.9452648132712705
  0.9464720629256081  0.8993258126934125  0.9574554880854524

 -0.59514299E-02  0.45675610E-04 -0.10536453E-01
  0.60342914E-03 -0.16307101E-02  0.22956095E-02
 -0.43030535E-02 -0.12590585E-02  0.69030878E-02
  0.72799208E-02 -0.86806137E-02 -0.77884643E-02
 -0.29166878E-02  0.80657691E-02 -0.35898302E-03
  0.15639229E-02 -0.17798083E-02  0.14691280E-01
  0.15808658E-02 -0.43692454E-02  0.16539283E-02
  0.47186320E-02 -0.49414215E-02  0.37003983E-02
  0.39761853E-02  0.24291660E-03 -0.74274100E-02
  0.23723767E-02  0.11414463E-01  0.37196300E-02
  0.42744405E-02 -0.47469500E-02 -0.29903638E-02
 -0.36343122E-02 -0.27379904E-02 -0.13351065E-05
 -0.10632185E-02 -0.81058175E-03  0.34199014E-02
  0.16168124E-01  0.91589892E-02 -0.21323614E-02
  0.16999927E-03  0.16312358E-02  0.42083716E-02
 -0.23867783E-02  0.85722406E-02 -0.34655977E-02
 -0.18242785E-02  0.10389391E-02 -0.25361557E-02
  0.14080131E-02  0.41467548E-02  0.20379727E-02
  0.18319435E-01 -0.86242658E-02  0.84917929E-04
  0.38556217E-02 -0.53256512E-02  0.34139241E-03
  0.50578194E-02  0.19272301E-03  0.39359806E-02
  0.73387140E-02  0.62916338E-02  0.59270349E-02
  0.73478898E-02 -0.97209665E-02 -0.27954410E-02
  0.14757384E-01  0.87164386E-02  0.31080840E-02
 -0.10522291E-01 -0.11606238E-02  0.61038145E-02
  0.25825666E-02 -0.39394398E-02  0.10532387E-01
  0.16804641E-02 -0.11717072E-01  0.31940558E-02
  0.19294199E-02  0.84835725E-02 -0.60038251E-02
  0.81789295E-02 -0.37189020E-02  0.84275452E-04
  0.28405782E-02  0.73932903E-02  0.14597700E-02
 -0.16490440E-02  0.56617640E-02 -0.16604878E-02
 -0.63370201E-02 -0.78148015E-03 -0.10032647E-02
  0.76128572E-02  0.45565201E-03  0.28564303E-02
  0.44062786E-02  0.75420727E-02 -0.34741175E-03
 -0.24944687E-02  0.22784117E-02  0.57424615E-02
  0.26751851E-02  0.24389629E-02  0.52692166E-02
  0.30726767E-02  0.96465059E-02 -0.12595843E-02
  0.31194356E-02 -0.45476098E-02  0.40859341E-02
  0.17052070E-01 -0.89799093E-02  0.38886879E-02
 -0.81312265E-03  0.36756965E-02  0.87613871E-04
  0.55247236E-02  0.45396074E-02  0.33967347E-02
  0.53244726E-02  0.93493597E-02 -0.14004489E-01
  0.47278246E-02  0.91546035E-02  0.91152966E-02
 -0.58296652E-02 -0.27867117E-02 -0.67282476E-02
 -0.20861084E-02  0.14854370E-02 -0.44752403E-02
 -0.88122427E-02 -0.34029976E-04 -0.28889413E-02
  0.69743678E-02  0.38352611E-02 -0.60225901E-02
  0.98011109E-02 -0.26379801E-02 -0.21153756E-02
 -0.24151931E-02 -0.39153862E-02 -0.13287595E-02
  0.74453980E-02  0.15241105E-02 -0.96200847E-03
 -0.44936069E-02  0.30658347E-03 -0.48888070E-02
 -0.31973570E-02 -0.13218350E-01 -0.87251832E-02
 -0.11121651E-01 -0.32195940E-02 -0.63724807E-02
  0.44060267E-02 -0.61091879E-02 -0.43561550E-02
 -0.74476382E-02  0.11129886E-01  0.20622843E-03
  0.11740833E-01 -0.17805525E-02 -0.69018239E-02
 -0.52657490E-02  0.13304288E-01 -0.26128214E-02
 -0.37115167E-02  0.22145674E-02 -0.96902471E-03
 -0.33669535E-02  0.42596017E-02 -0.13590180E-02
  0.81400179E-02  0.62428266E-02  0.65412700E-02
  0.42017334E-03  0.11369977E-02  0.33739185E-02
  0.86002634E-02 -0.78752214E-02 -0.46590266E-02
 -0.98110151E-03  0.24029982E-02  0.17904131E-02
 -0.61578397E-02  0.40094380E-02 -0.17977851E-02
  0.94878887E-02 -0.88583571E-02  0.72443163E-03
  0.38964094E-02 -0.63217638E-02 -0.44405685E-02
 -0.42842633E-02  0.35010906E-02 -0.29098947E-03
  0.14559805E-02  0.28950277E-02  0.78177990E-02