super cell                              
-10342.12
     9.5160698588808970  -16.4823164839565095    0.0000000000000000
     9.5160698588808970   16.4823164839565095    0.0000000000000000
     0.0000000000000000    0.0000000000000000   30.8472293999999998
     432
Direct
  0.0851993468052364  0.0836167475501405  0.9620632827404715
  0.2570163015235110  0.0416820566674409  0.9590976773259849
  0.1822288447468368  0.6629355906220570  0.0413793859189576
  0.5475480904795039  0.9077942036662530  0.0077065569643133
  0.5357964305788562  0.0603462654188230  0.3017377276807175
  0.9395272228868154  0.9240636898656116  0.9801274874823023
  0.9566673750351764  0.0717718947190834  0.2752577467201801
  0.3031794481375928  0.4858986332057293  0.0543561676831482
  0.1421611100797842  0.4172255726438670  0.0006191173065891
  0.5358697063114226  0.0030001683399640  0.8382716587916332
  0.9276839133187760  0.4262869194311955  0.9951227146668231
  0.4511294264999267  0.0128202290569024  0.1262538067562481
  0.0459490577260999  0.5586032766917873  0.8190177767045038
  0.6913055729303017  0.7862184498307208  0.1976174850251247
  0.2111936389616749  0.9245117908584541  0.1250705403306445
  0.5130534405599032  0.7348365047350016  0.1518823955578448
  0.2022176689968456  0.8936234511363048  0.0192210354957251
  0.0091324736315620  0.6066626259953609  0.1718027595293647
  0.0978871171220245  0.9954580136376947  0.9058400587696681
  0.7106633376291829  0.0788071868751679  0.8455965188866301
  0.9336574162097447  0.9930827859798407  0.0574682015371530
  0.5388448923671542  0.7673470451513549  0.0317663627161584
  0.7902097865680309  0.4803176245268700  0.0454330361333029
  0.4062129527074305  0.0550862989290742  0.9773712585180169
  0.0134411253169357  0.7922922817956968  0.9952659666801711
  0.1438270774932572  0.8805453606550138  0.9051558988001658
  0.7099709282093063  0.0638145638231901  0.0385673777295044
  0.8059197811181629  0.9372555337434375  0.1478800577617784
  0.6374655467498114  0.6873519239979110  0.0697939700737727
  0.7478136505207613  0.6583959243794029  0.2340027847803177
  0.1046692534850754  0.1280697763105738  0.2159354406599987
  0.4921825503452203  0.2709517465140835  0.0822478288637871
  0.9372236179387829  0.1063604210327182  0.9922961236744949
  0.3521876383486887  0.6023773361197223  0.8969038112689274
  0.7493005598160191  0.8886150422579452  0.0374421049890797
  0.8881365021251526  0.1911013089578124  0.9458982672036004
  0.3188768584634534  0.1611987008141955  0.2525774943232475
  0.9495026309396679  0.1852955740317124  0.4075396018246409
  0.4092528037649470  0.7944227656066397  0.4064772835818832
  0.5960487741471364  0.2147884713817894  0.2888140316995073
  0.1373144504895004  0.6114261952906686  0.1429794034873661
  0.6409677236032354  0.5898724820763583  0.1505365848366735
  0.4321111682922959  0.4860889869339108  0.3727747673282960
  0.3084601056928878  0.4108967257064762  0.1504174361902080
  0.7383269395266967  0.3948527138824710  0.2339077453560035
  0.5551876352787848  0.0878590209693794  0.0129092421238992
  0.5539030662366780  0.7111243983083110  0.2481525502725516
  0.8505073153295146  0.7318593065140115  0.0864905467873676
  0.1163646762756126  0.9912984641427784  0.2047007345376174
  0.4455718434223134  0.5524491108479906  0.1261073419218882
  0.2806316339194785  0.2078661806890027  0.9077562626339420
  0.7504227244099694  0.1786017875302667  0.1346826612004570
  0.6390696857839258  0.4482048673416624  0.2176523186523234
  0.9928378918912630  0.7922007921959103  0.1967827979472834
  0.8354105308558712  0.0649827811553771  0.3598573709843156
  0.3984366987404549  0.7474097668312932  0.2518083666842011
  0.4337265941636467  0.9393793382585260  0.0125219863429796
  0.7729771786890169  0.4346900463609770  0.1431284939565762
  0.9987272521422282  0.9074071840162309  0.0563830232862066
  0.7832809509808552  0.0430531763907783  0.1031187615891470
  0.5542187096606674  0.9713651686328110  0.0856467589014598
  0.3301103371970222  0.3882791480281797  0.2353608683742726
  0.6160949251697865  0.8999377645993766  0.1360317743317181
  0.5785459073022656  0.5746765184418129  0.0294338136282426
  0.3468116453746427  0.8429755494904870  0.3228933085385700
  0.8948797505796749  0.4554100395857383  0.2147198056302424
  0.4125082564345942  0.2297411854004690  0.1871858389796968
  0.3137583768302445  0.8717316188907247  0.1466065818675093
  0.5977753888219213  0.5493619236878995  0.2404696780252904
  0.6614435988067126  0.7965645436857879  0.1151517460310511
  0.8710671598118449  0.7009668190564934  0.9645602431017269
  0.2824128334393220  0.6876949075476876  0.1783416819837945
  0.7992839320351491  0.1581661310127180  0.2444147941068799
  0.0890087509226558  0.2443372353305025  0.0103183556392375
  0.6470300231716256  0.0657161195929530  0.1877054728989140
  0.5733874239074876  0.2249401247912422  0.0028188476647588
  0.9237093242060338  0.1132709435284443  0.1905880567335622
  0.9760825597039440  0.8975848271589050  0.3451412960290532
  0.6010516902465962  0.2096331094580002  0.0943788096913382
  0.2851211321995576  0.3319719338828716  0.3473462882453954
  0.6054487082950099  0.4143965630946034  0.1222988987579565
  0.7394075763245468  0.3677507211231159  0.4312284938332556
  0.5113694243262537  0.0361699876908887  0.2165176607387224
  0.9558116810826767  0.3803766243055082  0.2669651395386530
  0.0868691022386436  0.4929861042631236  0.0760371160556552
  0.9072240063352612  0.2493813669544137  0.1324198689977456
  0.8131114627547220  0.5930787858919779  0.1418611249093199
  0.8674802780924777  0.3969827226868329  0.3779297844024653
  0.3349881840215425  0.1779877885512909  0.1061768243820089
  0.0106989430559210  0.3617164413630761  0.9449882312782613
  0.9760424925203749  0.5256005535203258  0.0647006070209679
  0.3165753032607834  0.6413882643084942  0.0843782530344711
  0.7917409885921403  0.9738912407060015  0.2311052103270862
  0.6360561322227631  0.4132299014034275  0.0186956341890774
  0.7501599954674626  0.5627098527138119  0.3301923674528349
  0.0774582146093154  0.8770953071881259  0.2908468086457788
  0.1634196941895663  0.7740192510378410  0.1835643851538468
  0.4964354891965210  0.2767409869515730  0.2486761628395947
  0.8545599321064805  0.9362730807440681  0.3279364636980533
  0.4881548951288731  0.1531039282853401  0.2153613121500140
  0.6029766329065197  0.2847824314304064  0.1818907778128947
  0.3205806089287432  0.5625821083546634  0.1533646014010749
  0.9799712984535378  0.0461026667996785  0.1269216508356839
  0.1847972935505424  0.0506231775665283  0.1087978572799971
  0.3416447169375749  0.9164033823194061  0.4154020655876655
  0.8663441346534285  0.2974022869902130  0.1992619983656924
  0.8964533089021288  0.2146284963366902  0.3012253449611971
  0.2303715245733108  0.1976441362351081  0.9981451672993676
  0.4292838509294697  0.3896579198667236  0.1295326220816079
  0.7953989202034952  0.2486315271848046  0.3410102821681568
  0.8718397861369036  0.3066196757382104  0.4449924942675089
  0.0206365636336140  0.2714532597364497  0.2387510626769770
  0.7019889155518445  0.7612177221965923  0.2899000954753324
  0.9845235950173478  0.1870054779630651  0.4872280872227817
  0.0133883993338548  0.3314038952447246  0.0506774421410868
  0.1423030390591565  0.4407871338471285  0.2581358793368341
  0.2723210133792063  0.5011940422611786  0.4029852704585969
  0.1975717906125129  0.6762036647708313  0.2534018438866902
  0.9626812922634874  0.9652723675101248  0.1941801716567046
  0.0587553164174076  0.2434617129030816  0.3168718407603688
  0.9185447057055597  0.2245505373790944  0.5850381827704133
  0.1611654453909694  0.5455401881917022  0.3234831118027008
  0.4012323827213483  0.1591913849987033  0.4706240759454998
  0.1819339413468603  0.7771010590036114  0.0980546265109731
  0.0556354224979427  0.3845716603432578  0.1726099325817906
  0.1826849205764962  0.4218288069840483  0.1038257802530766
  0.2226466702283351  0.6604387091639496  0.4309081797920638
  0.6094228971040748  0.8715642233573528  0.2210021344445077
  0.0182178535042319  0.6143636779452338  0.2530661205520366
  0.7446176375273036  0.6853566709908395  0.3771156243878102
  0.8582871663553384  0.8395874032856309  0.2481124346033405
  0.0071194638983652  0.3517131043957515  0.3465556496442882
  0.4845572712668795  0.9038251609262702  0.2743806823820914
  0.8775095660909126  0.4927454161787432  0.2930975290788617
  0.6349397891402351  0.1927673643147211  0.3720424115283983
  0.6849029790115879  0.2231758457795720  0.2204045193842454
  0.9845388744602073  0.6431590322741381  0.4334714690308442
  0.9881169358539690  0.4754719497140604  0.4242891267317421
  0.4141968500761667  0.0971036837774661  0.0637872915663216
  0.7736596047405709  0.3284572108798899  0.1012418191085782
  0.0318351195153710  0.8977543588042100  0.1344153432158060
  0.3493065500974916  0.9294839845237897  0.2318498630583916
  0.5593150762415657  0.4873380502147102  0.3861959845423375
  0.4437833564874752  0.7651957492943686  0.7089873097581819
  0.1549594418473863  0.4058983863406675  0.3351626383896434
  0.3697243947737635  0.0806024725947639  0.1489191186907249
  0.4686806103374052  0.5601528473187063  0.4590081633816520
  0.5573133591760953  0.0620801598338865  0.4497216427666506
  0.7947240685239620  0.2766054347014613  0.5991807192217091
  0.8871570597885874  0.8441146393620460  0.4225048078286173
  0.4116762281275900  0.2254852032187127  0.3455554322470057
  0.2907877642301627  0.5683564264331302  0.2362095826060963
  0.3776420941141738  0.3201798892250746  0.2970966997071794
  0.5409572131020006  0.2140964590114012  0.4319165345199998
  0.7529630876235303  0.1526473794772450  0.4288908238845200
  0.1177734061344100  0.5888819176093765  0.6372806673965866
  0.2855471068946521  0.3489521081172833  0.4538234570400375
  0.2801549935354974  0.4948873263699222  0.5089919550211089
  0.5089139369044385  0.7755403012349907  0.3265814946763644
  0.8385794742150496  0.7275107960170915  0.5953624970241387
  0.9832019032138569  0.4349308012715807  0.5834190281468143
  0.2719726449478017  0.0595853744780540  0.3415475696249428
  0.9719293938152932  0.5708732341638508  0.5410102075499392
  0.8214711911421453  0.7189295883491951  0.7756102064314776
  0.6570329081347893  0.8739529395605443  0.3019463507693449
  0.8699523341733680  0.7444389779106603  0.3270904943514618
  0.5870557987509896  0.7202905131652227  0.5189154971488792
  0.1627913443327101  0.5821126141042990  0.5370672836723482
  0.2515339567558859  0.9844996278741557  0.2071766502062208
  0.0684153078497080  0.5252597205163256  0.2157177535161668
  0.5059383832469019  0.5639640585108660  0.3105788990720362
  0.6983850420328165  0.9213038115936962  0.5106812634210324
  0.8748816741519665  0.4229174229629202  0.5064348776534977
  0.4010384648263021  0.0880683007206025  0.2799939488236534
  0.9927230061422024  0.9667300164976528  0.5618429524510007
  0.8073102842698595  0.0838068253228248  0.4749622371231634
  0.5057252842045711  0.4148162821423177  0.4589135502578280
  0.6522976987966446  0.0208946795857851  0.2899821096326941
  0.4648711491566396  0.3798377587358004  0.2153964660511669
  0.1771684323376554  0.1842114173524867  0.3364334412779502
  0.2244529209840389  0.2005665503284823  0.1438569518586730
  0.9245303315500605  0.8045387615838631  0.5093898058268351
  0.7321731623914702  0.2909694776088512  0.5110216964079124
  0.7688525892851523  0.1863250170086415  0.6513091836472485
  0.5709300844694991  0.9481522811827191  0.4810551095939702
  0.1236647962497436  0.4977337041998139  0.4435438824655514
  0.0047280617768109  0.5002640700708069  0.7430718616862885
  0.2456181545404020  0.9321731201585309  0.2983107286312596
  0.2028750547460919  0.2633042589683063  0.2665470962015067
  0.1163327640793101  0.2430851343444958  0.4025717169482522
  0.2511981310930425  0.1450671461047438  0.4219827049270273
  0.5701372731141635  0.8981008110145762  0.6083678521279964
  0.9576067039495213  0.5364159535738031  0.6530188023972467
  0.0479491881441717  0.3537060280232945  0.4455931913688571
  0.7310563561848153  0.4180584114904087  0.3251252962394657
  0.6208007601662187  0.3427519512768090  0.3696315772422747
  0.7215448211872096  0.4843204593671560  0.7554403809090910
  0.8448176838137077  0.6601917243537234  0.4361208916469401
  0.3691951845319030  0.6472060640812112  0.4702376884062116
  0.6909076303393207  0.8498718573101756  0.5861859201768385
  0.0711367524269760  0.3099422096171578  0.6126270789168488
  0.4992120461773086  0.1206646658723349  0.5213062330180533
  0.8192999066862967  0.2160923850351687  0.7486984924983644
  0.8194936395998407  0.4346695374259612  0.5858706830747169
  0.8499269891647222  0.5244393610230610  0.3880684162678523
  0.5994739645314729  0.7780811171517806  0.4182786813098393
  0.9131079119104215  0.6720083660747221  0.2498729644227294
  0.7264116970344540  0.3381922704972288  0.6703688067727442
  0.5463345073779128  0.6817430625308664  0.6285258351142905
  0.7823144258020422  0.6353532119523693  0.5171807294926540
  0.9447812567520725  0.0410293655241589  0.3981838798389966
  0.7293027623742651  0.1254310968408194  0.5194717762289226
  0.5027884814254128  0.9577424081549752  0.3762863634431122
  0.0406150314197253  0.4121239125841846  0.6823962190598107
  0.9105884735963935  0.2380493605147617  0.6665902313273754
  0.9885561368352194  0.4847977457265124  0.3208937457590134
  0.7474057773995596  0.7687315473296022  0.4723046713577522
  0.0888906667786101  0.0636520216402741  0.3806045938647328
  0.4458162905509595  0.0715614147207074  0.3616823624864314
  0.5078350034413586  0.5732833140028719  0.1894576652487419
  0.3264768607273738  0.3476431712213094  0.5725802175039646
  0.4978232642428755  0.3111474770157698  0.5800099973236180
  0.1899394924524439  0.1491837464879619  0.5752375988736140
  0.5995874791290893  0.6650878464511238  0.3769262419386977
  0.1136732854712462  0.0331548589556488  0.2914794406947324
  0.5186209227680844  0.2710393548239680  0.7557160639117861
  0.6587197125573979  0.6855907430677026  0.5841241519455654
  0.3201977669224148  0.5148606323982994  0.6818488556703550
  0.3052984789952672  0.3653071901015281  0.6787250404800730
  0.5859138681590259  0.4636115638012455  0.9434402957813918
  0.2807180066225235  0.2361099450968420  0.5067842465377587
  0.8043257059670278  0.8442021231329210  0.6381225876241786
  0.9181598511801535  0.9680290285923517  0.4777382763991036
  0.6860690404575545  0.4807836569724491  0.6614815467337661
  0.1272669348332372  0.7456925031401699  0.5662359119998365
  0.1680342542649369  0.5442070844543233  0.7291637007077031
  0.1116677591159236  0.1574245242797224  0.4856536241994171
  0.7302075490849048  0.8155209465234206  0.3835440039633309
  0.9996663775731419  0.6848661360112411  0.3380088981097984
  0.6845710912174882  0.4843155456784427  0.4238543972820225
  0.8876432468344261  0.2502763488041575  0.5107745452485410
  0.3042219130238830  0.5151878299279957  0.3130836194343381
  0.1460578407073523  0.7116968230727211  0.4769098176936719
  0.3527924078743307  0.1786307168463392  0.5740612550589544
  0.3872890299496340  0.4275247551465926  0.5045284453581459
  0.0579664184251354  0.8270015155499292  0.5998027403336970
  0.1581153888562399  0.7885545708940966  0.2742040503779965
  0.1561485911817627  0.7903732783509637  0.4015466528541415
  0.4311072892977171  0.6308104316674110  0.3871616922573580
  0.4388208412924146  0.5649549189105769  0.5633356952497390
  0.1131553095303297  0.8998225359611485  0.6685267150331893
  0.5766192997125741  0.0813974775910985  0.6114995954323375
  0.0771635193523120  0.6672326238158476  0.7273578184646149
  0.1164061754263620  0.6393842471526007  0.3714505474243456
  0.4580920083770439  0.3672330610797813  0.6333695177044449
  0.2169150383295795  0.8647222008924641  0.4929305275705257
  0.4265239062467250  0.8828923846811583  0.5831201490304906
  0.0999283669033743  0.0274247072340083  0.4684234631613541
  0.2814210286311992  0.0460569818403911  0.5098332133288876
  0.3934930318746225  0.3105370264782152  0.4147553432589444
  0.5769443441318159  0.3585520096549549  0.6910489093401787
  0.1805700728298271  0.9393629069246150  0.3975750522445805
  0.8668834704826540  0.1128974238837736  0.8681683800924188
  0.8105494626382462  0.5522173850968325  0.5627048245650985
  0.1782511519216942  0.3357529468114644  0.5169014331217535
  0.2870996148875804  0.4510695655680092  0.5977023673358383
  0.3593909365807357  0.4460484487170859  0.7550637657415086
  0.0866331298447301  0.2353497026319972  0.6825915420040770
  0.2556443088531735  0.3160355075609544  0.0688434722271216
  0.2853595200607396  0.8767603111667700  0.5734009052588794
  0.1564878395432825  0.7582163443774861  0.6500571165194368
  0.3159516711175543  0.7878267366533069  0.4762682659617025
  0.6304704907782519  0.6118487326465879  0.4501022389727217
  0.4758744156127641  0.7678543130206903  0.5654997769198760
  0.6917269551815600  0.7260562140191594  0.7510685412208281
  0.3752471379867252  0.3067838356021996  0.8057801094618380
  0.0321081621107952  0.7434714981718344  0.4936212351357831
  0.1230600193701679  0.9290803719012030  0.5135763034935373
  0.6690602696799834  0.4451717797425202  0.5399605201260674
  0.2381040577018569  0.9967956747323383  0.6174597472107078
  0.0955659464415537  0.9806283241857248  0.8183092497607679
  0.7837260890972217  0.6049944730949202  0.8327748363616193
  0.8751400321434585  0.8974131760773554  0.8395937421455791
  0.0357710461819449  0.8514767885583516  0.4126281837259175
  0.4157204062607358  0.9376940529048646  0.4863895428042627
  0.6246527091189551  0.7952806541384495  0.6945781149121260
  0.7777782937272555  0.9379140619205261  0.4254388190101159
  0.1826681785216318  0.9329295344898073  0.7606559003231578
  0.7635500414638838  0.4429831986496013  0.8347761438166088
  0.4225443288899444  0.0225597500614054  0.5882654898756693
  0.5962884886474444  0.2323823723083132  0.5732987221604827
  0.6734547059319314  0.2942688742046474  0.7587927968853301
  0.2288500414602659  0.0315792197562881  0.8300311113328442
  0.9432458811898145  0.0094652433257088  0.6657739557984348
  0.6439917039061014  0.9970974899935481  0.6699494552798231
  0.9336867023241816  0.1165426108610537  0.7139506601644412
  0.0424378984444088  0.1532052831807452  0.6074824128675891
  0.9007506583006458  0.5560623198953007  0.7640979280945329
  0.7230189052557258  0.0524884159219239  0.5913722414900043
  0.6128460560782537  0.3329744282994702  0.4806788214824005
  0.0847652958605608  0.3915540859105956  0.5385108357591456
  0.2892280647860278  0.7330421699170376  0.5869941155343144
  0.7389659569261694  0.2823320185561992  0.8853735088682319
  0.7820949781376605  0.0227647097203121  0.6848600610407793
  0.3439976867390186  0.0965377954892500  0.8910272824622181
  0.8695133397758874  0.3818644388919392  0.7997814711087918
  0.5530917849487489  0.1433843489728216  0.7009063559202019
  0.9129713754566463  0.6987752043102178  0.6941679136424066
  0.6163662747876436  0.8461027518242410  0.9068978673217465
  0.6487043570548855  0.8009490778364944  0.8222745470197335
  0.9475376378614644  0.6481085790165644  0.6161759833097901
  0.7841044242336394  0.6256855132318140  0.6522492248705002
  0.9788024941588930  0.8995453372722771  0.6284962724400617
  0.7638535333471304  0.7529629180567390  0.8345382528139985
  0.3208634686534615  0.6251784787065653  0.5710787529838850
  0.6769834967972495  0.9325954466533866  0.7595276629169521
  0.6065611735550697  0.5182049562639796  0.7790032116741091
  0.5443053877384202  0.5151085908921363  0.5647614942357171
  0.4592293950182260  0.1546803134440004  0.6431327351802497
  0.2015820833349461  0.2619895346837420  0.6265320292292583
  0.1494785818631438  0.3811262565762066  0.7105481464491955
  0.5543145481280889  0.4272712871764893  0.3103196759166607
  0.6094997176742722  0.6012898928015675  0.6864754987708737
  0.8119091475375675  0.8989604604191743  0.7569006375324132
  0.4757164713534006  0.9233550974727115  0.9262126106821857
  0.7431405039043526  0.5825623881624908  0.0699262934117539
  0.0174174359438665  0.9515338615719358  0.7180755900859853
  0.6608554145914284  0.9806253877654895  0.3608646202512220
  0.7845845988796275  0.0158285572827045  0.9645667777704244
  0.5644751765696242  0.3949719801140558  0.8457916217632596
  0.4843862483944160  0.4074621358347755  0.7228508547234714
  0.2120993645413445  0.6168873203398925  0.9193450248653388
  0.7952944597916843  0.8270985959402614  0.5472372281380790
  0.4108045196767891  0.3749353853028479  0.8934561888301482
  0.4021270605889886  0.9751949180653657  0.6763259588959416
  0.8066485456050891  0.4934213300460680  0.6882194856623018
  0.1680161723095951  0.4764631433063702  0.6198620674202550
  0.9168181349025124  0.0182241741995463  0.9190797225157077
  0.1985795727086395  0.2632191303633817  0.7843444303406915
  0.8606534450059402  0.0642355951445771  0.5546486101930238
  0.2614409074570337  0.6781468596844840  0.7020125232512817
  0.8813775399768652  0.2447908115409444  0.8423074905684447
  0.0549234922613139  0.3694505832670791  0.8380958108795129
  0.4537898442517059  0.4989782545930047  0.6637392312605240
  0.1787942823860637  0.3854890519762053  0.7921817831426813
  0.9184278522679027  0.5324712927737417  0.8532802362992606
  0.7448933388703165  0.2045614899685811  0.9540667144667891
  0.1967908460653267  0.5458811901440542  0.8383232866116180
  0.2608067299903105  0.5939471588986389  0.0017353258644147
  0.2666831059045910  0.8967326619212765  0.7251987276649994
  0.3869847401076532  0.8392289427277483  0.7913354801681918
  0.4785822732035572  0.6762327284458491  0.8373760451652743
  0.7979506320515189  0.4578954737392751  0.9389845534417914
  0.0066271545329454  0.8275929136160501  0.8146182641149079
  0.0485682377871251  0.2385952094788925  0.9063271525729347
  0.0864459349396341  0.1160428537304474  0.7611527368590373
  0.4702406007165261  0.2313018816235161  0.9121668259085987
  0.4664803791842017  0.7856930909938926  0.4861844124791352
  0.8442108106511041  0.3502389580627829  0.7152756663916174
  0.5489657068664586  0.5571574023243996  0.8744544053979234
  0.9178652587757774  0.6615907366324734  0.0386537177560723
  0.1159183728424595  0.1123986082049009  0.0558698194617000
  0.5610077822494991  0.1332919232735435  0.9155293101538110
  0.3323262806347024  0.6372009035554501  0.6516667375450151
  0.2337019373311803  0.3254792996510306  0.8659091441800482
  0.7471854553512082  0.3204177449229813  0.0027003008683350
  0.9293689263882233  0.0213589165682850  0.7936420801716527
  0.2558684406098225  0.1596335037431604  0.7502104851046340
  0.3443279552823133  0.5245035074474081  0.9634907315811879
  0.9911241374103893  0.3082955461918109  0.7586959574213410
  0.5137542782654382  0.1952277098493623  0.8276734268590322
  0.4324085006455324  0.6197191804495812  0.0587793120953311
  0.1545574770666769  0.2943518717141318  0.1626783941993628
  0.1873519795683541  0.4641366217626439  0.9100024166690369
  0.0891481138226031  0.5360217362301184  0.9981856593547950
  0.7445204384060395  0.9337672537271358  0.8553345413139415
  0.4252579373391119  0.0399978860370777  0.8450688384425137
  0.0057707476417878  0.2072843868044699  0.8023991203546699
  0.9346797392317144  0.3937734364468393  0.8954588460391565
  0.4376155754020995  0.8172166462213482  0.0567993377905310
  0.3536106169787357  0.6098125940267537  0.7670074182197864
  0.3247764248439874  0.8137228387427794  0.6666856487822045
  0.0658867275526834  0.7181548005548268  0.8113933802048998
  0.6389994149373217  0.3385304150549145  0.9251414615944836
  0.3390471851102506  0.9249356996048128  0.9095459420632599
  0.3513994099554222  0.6982091265801128  0.3353617184630605
  0.5137706769118389  0.8208939983466211  0.7913912743613084
  0.1780343859579583  0.0709082521472362  0.6451840183016208
  0.8015772185575669  0.7437133884835020  0.0180105581633441
  0.8872149045562467  0.8329619027058961  0.7005026280958783
  0.2395180630650335  0.7524972053705861  0.7906644115140221
  0.9635715470129496  0.8520442191051056  0.9075021749308615
  0.4046931543765282  0.4117123893765138  0.9763779566839386
  0.4042652689002706  0.1090327947125013  0.7705742385773255
  0.6872487637348683  0.0850642469192022  0.7557920343679948
  0.4605651580398529  0.9947297098064063  0.7544103097733944
  0.2120615460674071  0.3384415588469564  0.9564653251786764
  0.6636305872218451  0.1887695958334115  0.8081615534721293
  0.3299752370731449  0.9254740289126305  0.0689884370390570
  0.5029917882473809  0.5782042999549792  0.7672736960826181
  0.5329416951318460  0.9385924879044550  0.7206426767827750
  0.0287654472732303  0.7612190940102002  0.0940110794127459
  0.0285476272119581  0.2152094589994581  0.0946363806555858
  0.3532780060226325  0.4854218573057412  0.8481650986215481
  0.2008971109428731  0.1518203895640710  0.8317858204229649
  0.1587707508237184  0.0089045696935616  0.0239864325379295
  0.9523239236598097  0.4234735856179864  0.1226699533746870
  0.2970536268557178  0.9259356567581283  0.8029906643552329
  0.4096868485374454  0.7240108832845999  0.9689041328555293
  0.3030438265983508  0.0532740752159228  0.6953234740857751
  0.4904310092986497  0.6192833803273334  0.9314085116965612
  0.4451525027179359  0.4385847869135707  0.0533796374091862
  0.9761596952207970  0.6240172048858521  0.9414414568601083
  0.8291698078323166  0.8227024124656316  0.1446382060410814
  0.4519928562272008  0.8204455498220031  0.1629565072480328
  0.8401835746259747  0.2287029129355183  0.0497097806640255
  0.7059672376507126  0.6111322865110917  0.9704558158179208
  0.6464674129148552  0.7073486291022876  0.9042722342828955
  0.9561293969831951  0.7239556935090926  0.8800482878006034
  0.0425673290110038  0.6532942093942230  0.0177977650844901
  0.1489286502640047  0.7599980840812700  0.9726376055014487
  0.3114840104503509  0.7942642840343357  0.9581911240040240
  0.3853599762329005  0.7526378032935442  0.8626263813451245
  0.4803273066901660  0.6291145246681075  0.7052181936329153
  0.0745052554050340  0.1289231960186891  0.8743426442891001
  0.4158010525634698  0.2819014449341398  0.0012580731976280
  0.7775358425109227  0.5692929986039276  0.9082736559024825
  0.1614407069710370  0.7241412376134447  0.8969408044011826
  0.3858381897335542  0.2467920302559538  0.6878009525109938
  0.6492489677186036  0.0338845075752266  0.9371275024375191
  0.7969656117230398  0.8270981524729702  0.9483530543431201
  0.0555676312086420  0.5393643029282076  0.8993271816999761

