super cell                              
   1.0000000000000000     
     7.0910579868165264    0.0000000000000000    0.0000000000000000
     0.0000000000000000    3.5455289934082632    0.0000000000000000
     0.0000000000000000    0.0000000000000000    3.5455289934082632
   Al
     4
Direct
  0.0661297606130550  0.1187699008248366  0.9993306885417224
  0.4241697909279438  0.1336961645845766  0.0047173598057959
  0.2667243471646445  0.6147523939291625  0.5034257382678129
  0.7429761107943563  0.1327815328614238  0.4925262233846698

  0.18054768E-02  0.24288412E-02 -0.55915663E-03
 -0.15419758E-02 -0.72048881E-03  0.62909766E-03
 -0.10047243E-03 -0.12224392E-02 -0.75453189E-03
 -0.16302859E-03 -0.48591325E-03  0.68459086E-03

           1
   2.0000000000000000     
  0.33007573E+02  0.12035096E+01  0.00000000E+00  0.00000000E+00
  0.66638987E-01  0.12013999E+00  0.99901527E+00
  0.42373488E+00  0.13328974E+00  0.50722280E-02
  0.26669601E+00  0.61406283E+00  0.50300011E+00
  0.74293013E+00  0.13250743E+00  0.49291239E+00
  0.51994425E-03  0.13998909E-02 -0.31266708E-03
 -0.46614560E-03 -0.37627464E-03  0.37268387E-03
 -0.65395749E-05 -0.74303514E-03 -0.44420675E-03
 -0.47259077E-04 -0.28058113E-03  0.38418996E-03
  0.00000000E+00  0.00000000E+00  0.00000000E+00
  0.00000000E+00  0.00000000E+00  0.00000000E+00
  0.00000000E+00  0.00000000E+00  0.00000000E+00
  0.00000000E+00  0.00000000E+00  0.00000000E+00
