super cell                              
   1.0000000000000000     
     7.0910579868165264    0.0000000000000000    0.0000000000000000
     0.0000000000000000    3.5455289934082632    0.0000000000000000
     0.0000000000000000    0.0000000000000000    3.5455289934082632
   Al
     4
Direct
  0.0082502915095765  0.0090609719466021  0.1261289426591193
  0.4492564383020072  0.1907520587903743  0.7818702920560215
  0.1893210891743576  0.4549039224462005  0.4637033742782389
  0.8531721810140585  0.3452830468168231  0.6282973910066203

  0.54310342E-02  0.18092888E-03  0.75069707E-02
  0.11157891E-01 -0.71839543E-03  0.37961921E-02
 -0.14240382E-01  0.21117706E-01  0.75867524E-02
 -0.23485431E-02 -0.20580240E-01 -0.18889915E-01

           1
   2.0000000000000000     
  0.52248306E+00 -0.10495909E-01  0.00000000E+00  0.00000000E+00
  0.97820895E-02  0.91630322E-02  0.13036356E+00
  0.45240347E+00  0.19034682E+00  0.78401169E+00
  0.18530466E+00  0.46681622E+00  0.46798299E+00
  0.85250979E+00  0.33367392E+00  0.61764177E+00
  0.14682225E-02  0.63413890E-03  0.44308852E-02
  0.29985833E-02 -0.26674939E-03  0.19233749E-02
 -0.39801379E-02  0.11409086E-01  0.42106593E-02
 -0.48666785E-03 -0.11776476E-01 -0.10564919E-01
  0.00000000E+00  0.00000000E+00  0.00000000E+00
  0.00000000E+00  0.00000000E+00  0.00000000E+00
  0.00000000E+00  0.00000000E+00  0.00000000E+00
  0.00000000E+00  0.00000000E+00  0.00000000E+00
