super cell                              
  0.89575888371708945     
    22.2041630040554239  -38.4587384625651936    0.0000000000000000
    22.2041630040554239   38.4587384625651936    0.0000000000000000
     0.0000000000000000    0.0000000000000000   95.0096881999999852
    7056
Direct
  0.0139580895574696  0.0446030324722670  0.0171095869920350
  0.0947678492806503  0.0540689494652966  0.0128255123509504
  0.1568801291016442  0.0486543759257145  0.0137583243357753
  0.2422922573952846  0.0592063437632788  0.0079825768968362
  0.3090197572610549  0.0341636605324567  0.0104973364674521
  0.3733419321201552  0.0336850655333620  0.0082029615358579
  0.4569033022049283  0.0562952633048113  0.0086500659430513
  0.5222186775185804  0.0453196382392278  0.0119845288771785
  0.5876132079002261  0.0429668751947219  0.0143838148165329
  0.6662959446678158  0.0538617542666344  0.0197301465570945
  0.7289532697754524  0.0353530256123946  0.0119380173636330
  0.7987058171011725  0.0452122582323895  0.0135620331240318
  0.8650309352570602  0.0461258923874439  0.0192310037620231
  0.9498742225482744  0.0639034738642650  0.0175514074642251
  0.0385435567017254  0.1280837810598641  0.0178211670790134
  0.1100729035618642  0.1308114901410917  0.0100649429555020
  0.1656102945201638  0.1186940356716164  0.0127851597974029
  0.2277279464307824  0.1094209679708555  0.0111806163775157
  0.3086248834443595  0.1334046469260102  0.0081816435303281
  0.3773744026954162  0.1192800922654556  0.0167860957533037
  0.4408287449761872  0.1055780839304319  0.0153867664711598
  0.5319044227648604  0.1280443295478051  0.0134683186422606
  0.6073619399328649  0.1258823050518671  0.0117784756149604
  0.6677805995308148  0.1183903169482576  0.0187701342796842
  0.7426240169941494  0.1250787542415992  0.0151651407669817
  0.8109645440643192  0.1146594167334882  0.0184882944570077
  0.8712937472608786  0.1192890976634189  0.0168346223321549
  0.9515669429462079  0.1281466198693408  0.0205454368481099
  0.0197993392255000  0.1935588812253712  0.0159298928195000
  0.1020339334507483  0.2056559539383542  0.0111089642739515
  0.1748277236867111  0.1933731639892358  0.0180672243155868
  0.2382797908202363  0.2000076605366132  0.0131377986101384
  0.3054248041347449  0.1924153810433111  0.0107449549798915
  0.3846253601907677  0.1829686327217033  0.0140126398170182
  0.4670846380701406  0.1944645692624718  0.0105773794980379
  0.5317032481007971  0.1964302021040112  0.0138760548549115
  0.6082193693927493  0.1988624704791846  0.0142657805472055
  0.6781552767587868  0.2140428553447435  0.0100581990143453
  0.7451370915491822  0.1987316753693023  0.0121891767924041
  0.8145472418906863  0.1857296441989504  0.0136272991563189
  0.8886724700490092  0.2006787773455514  0.0151236921290021
  0.9644491661580332  0.2074332770308800  0.0147255308086756
  0.0305833105251239  0.2678927217522897  0.0126219117705517
  0.0942918264299024  0.2572624850086029  0.0122699320864186
  0.1683131355946088  0.2614473431326232  0.0130166306320660
  0.2408692573113456  0.2640375826205599  0.0098673917477115
  0.3165124806920048  0.2591233649647293  0.0169291329081958
  0.3868121845166925  0.2585385477981603  0.0151761319167605
  0.4498172208270077  0.2517638943309422  0.0177190798999263
  0.5204829176863868  0.2661836848891213  0.0108039480781343
  0.5936090741600992  0.2635825721376790  0.0177552070469957
  0.6751032345885335  0.2812210572782945  0.0124203630524136
  0.7615725686124435  0.2832259879280130  0.0116595387191936
  0.8190410127755783  0.2585329933787861  0.0110022464243755
  0.8804448168773646  0.2586998225874737  0.0132648932547212
  0.9646256038562129  0.2720622804658817  0.0149855158278669
  0.0326482803942838  0.3421250098052155  0.0121479619093279
  0.1003439914505222  0.3292908142712605  0.0088272088894570
  0.1822631770210990  0.3433154654152375  0.0126780561712536
  0.2424742602186640  0.3213197979490303  0.0153865858116333
  0.3371657854540473  0.3317410012103892  0.0140979208018166
  0.3981475318564378  0.3340587621274125  0.0264167023453439
  0.4539625307793713  0.3282536016014959  0.0107075200284612
  0.5183423110314180  0.3361151784450911  0.0163623874997043
  0.5913933353332155  0.3368154097087555  0.0160727090885189
  0.6663193533760818  0.3415714514981190  0.0168731808475258
  0.7412963409189288  0.3514989723330331  0.0034196875016974
  0.8298874711690871  0.3464784445439761  0.0126967087344099
  0.8847176672639776  0.3323177583871839  0.0134854643265427
  0.9567421098680313  0.3282412062562372  0.0134362361269780
  0.0425688702095712  0.4105356551498360  0.0170423948770235
  0.1029162115830715  0.4031871320061384  0.0118985300611598
  0.1862526497815580  0.4024092801784747  0.0109507339494570
  0.2565069961310371  0.4097487979136858  0.0144465655263843
  0.3086928573578547  0.3830756773265023  0.0145994542131902
  0.3832559541903535  0.4133696545815795  0.0108988424609038
  0.4719107964167080  0.4268293094186930  0.0164479153512573
  0.5322533033120820  0.4182673408525659  0.0180694709430966
  0.5969541461395877  0.4176749023336441  0.0096134031096895
  0.6628714166036644  0.4141403930604355  0.0129027242526405
  0.7487517107420771  0.4189226360468155  0.0172879059345306
  0.8137723262203664  0.4037357301426070  0.0080018871587058
  0.8898641041756861  0.4132749570435195  0.0097302683908467
  0.9529432048007536  0.3930162255511931  0.0073797360677332
  0.0252239044266673  0.4641217692866491  0.0208084682048337
  0.0889069585323057  0.4793872302690900  0.0125910991906935
  0.1681082402368190  0.4756838968377934  0.0076946012143537
  0.2465035461133240  0.4900391417263776  0.0093949357813230
  0.3056434561440682  0.4838481663263110  0.0114151854320284
  0.3584644455902790  0.4624675379746463  0.0149921777272155
  0.4400028182663505  0.4782981415260181  0.0112710924736987
  0.5410454781510055  0.4966905178936969  0.0143500485286836
  0.6001244595195203  0.4875702952683838  0.0127638586769194
  0.6607668005707623  0.4785414545500899  0.0118707932381525
  0.7458427435040136  0.4823324201140977  0.0144408408002761
  0.8194910483397990  0.4761271706494625  0.0059568006838973
  0.8923212273710135  0.4812312099691525  0.0087906667873199
  0.9635759764260570  0.4815032865064026  0.0142529206936572
  0.0214845135936059  0.5549911609134668  0.0137784931796929
  0.0898384002472241  0.5540000166356549  0.0111072779987325
  0.1631979921431252  0.5494872680973515  0.0083291446329241
  0.2294875660783973  0.5534084923767608  0.0082396105580784
  0.3257202784305875  0.5585074950102324  0.0158352551040508
  0.3922359304560885  0.5748861584865637  0.0059635858928146
  0.4587799451561949  0.5688680840857785  0.0141133592040532
  0.5198766704151510  0.5503588401306914  0.0170705227611592
  0.6049598394485542  0.5551467714060223  0.0134983719305595
  0.6681930835634731  0.5525735133093264  0.0107653792301932
  0.7408739921303180  0.5514262385486859  0.0181843287004071
  0.8085876881937253  0.5513915286854285  0.0085287305903350
  0.8703080409342263  0.5511570144437457  0.0142087525164385
  0.9520983933279297  0.5587531701625892  0.0100006110994997
  0.0028862207045108  0.6213775333959148  0.0197093636502785
  0.0719003058771293  0.6149570139384153  0.0126130579758268
  0.1619137852235113  0.6201900953569748  0.0105578916110147
  0.2341172436908039  0.6135116121654320  0.0126831183522782
  0.2980144345465945  0.6111493029402411  0.0179728396164904
  0.3727115577198674  0.6299013830398223  0.0108126194075808
  0.4526722659111257  0.6372434638341886  0.0126436730215147
  0.5246184330062107  0.6260868346531083  0.0107732105515268
  0.5876062445533492  0.6215172592507940  0.0107844736201343
  0.6724388608795664  0.6267914156884657  0.0127874281456144
  0.7486064159112189  0.6402217596010118  0.0124613485577143
  0.8203872724571397  0.6243894811887074  0.0107144027808204
  0.8807179138831245  0.6221395548680775  0.0140106348380868
  0.9351392444019382  0.6128775549269392  0.0114941934930499
  0.0162119033270045  0.6962349416200553  0.0158385642024541
  0.0910956081599537  0.6943701820059687  0.0191264901922068
  0.1557262957161711  0.6929707979191519  0.0080323528447082
  0.2400764750252407  0.6902420776269480  0.0116898770242244
  0.3057970847919478  0.6809568697332438  0.0169700679030029
  0.3808925455239702  0.7013986980052991  0.0050521547180153
  0.4516249616171493  0.7027897246084365  0.0166479964082598
  0.5166612123767322  0.6795225738107362  0.0094540982301794
  0.5888515213506480  0.6845893509042682  0.0149801350026308
  0.6535649050148749  0.6836282161014537  0.0095503100898924
  0.7538053763891313  0.7144024756978027  0.0146200985751719
  0.8276281298523216  0.7026450771993140  0.0145577948839843
  0.8815971746114499  0.6902433211167889  0.0165048300204518
  0.9426659520377356  0.6909714058055840  0.0144394866860793
  0.0312110169859992  0.7715112867694387  0.0201021438570521
  0.0957079737184827  0.7617492010075964  0.0146739878887914
  0.1703496798900588  0.7668201318746526  0.0171601724618995
  0.2156650595318368  0.7415064188803200  0.0119022763155670
  0.3051617773160018  0.7599717445702581  0.0064877206017471
  0.3916536980850651  0.7753869584854129  0.0088563912227357
  0.4534157490021826  0.7695819080992337  0.0129113392898290
  0.5221414469969616  0.7576588770445198  0.0143879516777830
  0.5809519387405047  0.7465610309508506  0.0125440590556138
  0.6664866981816218  0.7579603375223058  0.0130036030356138
  0.7545602814271248  0.7782289355485119  0.0148981906637289
  0.8215176066549574  0.7626787108097162  0.0160630410650171
  0.8908856211547871  0.7648153274024878  0.0179490612151199
  0.9646649371539695  0.7725571382024796  0.0129542969205048
  0.0259596835605151  0.8420742543608881  0.0165073089571379
  0.0884407049901057  0.8276436565025378  0.0096302425288997
  0.1696385645532388  0.8362043674006827  0.0140273728990437
  0.2408432409667611  0.8288502788271543  0.0156389231863159
  0.2977788788988249  0.8130456528825931  0.0155222506764048
  0.3921347265115784  0.8377291535411047  0.0191506225620373
  0.4557155043231873  0.8361767305167760  0.0154213245726567
  0.5218879026803691  0.8293663125728727  0.0155237364925043
  0.5984398317870046  0.8335308163144646  0.0170229057947324
  0.6528918152210252  0.8126486660024455  0.0113506387168911
  0.7391749866893278  0.8348464946028145  0.0147722513171047
  0.8153619053438064  0.8285270025153508  0.0188095073232972
  0.8852993084950072  0.8341825578180178  0.0119945229320990
  0.9511284414906171  0.8346581544995502  0.0180352091532043
  0.0305457653523789  0.9117342235836219  0.0109879347104851
  0.1030288713384095  0.9130079355553917  0.0119407070406083
  0.1666519253603980  0.9053600610776371  0.0138923386533278
  0.2305226187971954  0.8965343433296340  0.0155410008746699
  0.3075189550495807  0.9017282744238173  0.0148971786978578
  0.3619963449130665  0.8856280631266458  0.0133009660344783
  0.4505454125050647  0.9159650921182134  0.0136367483577473
  0.5233120471812427  0.9048505475036706  0.0152573223422223
  0.6011108556553566  0.9097971075130076  0.0135774546443557
  0.6697208982450249  0.8929438498126032  0.0156770060462534
  0.7421385875568802  0.9007698382752238  0.0163855010866669
  0.8107332053544596  0.9022364906688480  0.0170044442605430
  0.8827307213632380  0.9016380023381743  0.0169823097749742
  0.9525202687148351  0.9197057183250905  0.0182385588881857
  0.0277326840245067  0.9873701110703408  0.0160472433196546
  0.0983265039433832  0.9814201509218066  0.0166552493154271
  0.1659781091342012  0.9798068448394872  0.0179259750406473
  0.2350088537105250  0.9738184082206587  0.0108601440833027
  0.3032226647590122  0.9685134745920791  0.0106279730337278
  0.3886512023776021  0.9800101136897794  0.0169159661565246
  0.4489158038593501  0.9787587784731429  0.0132344727719982
  0.5237864462276107  0.9732975447963668  0.0151099573063220
  0.5864665245939307  0.9648628387279174  0.0180090939932711
  0.6651192199542848  0.9638520874069982  0.0163295865528355
  0.7361806171120762  0.9757645195235654  0.0125150404923033
  0.7983497280515266  0.9754295402706887  0.0210117683543700
  0.8709855889246541  0.9702224254639518  0.0181569127051304
  0.9428093271755600  0.9831964561855884  0.0121762029244934
  0.0564178213083650  0.0257674809652713  0.0458756977105566
  0.1346032135248123  0.0365584306328088  0.0458737403271101
  0.1954855452612065  0.0224306430322798  0.0417624694749890
  0.2565725077410121  0.0182553708402864  0.0357931666020832
  0.3420399077657805  0.0302994182258374  0.0362642268959377
  0.4162255139038180  0.0392467906898091  0.0353060029584000
  0.4765168425634698  0.0212318277462131  0.0370359584430986
  0.5481861035371125  0.0271100359462153  0.0395705359829037
  0.6036816708415600  0.0234991572730365  0.0466571197785797
  0.6863733781875254  0.0334067183619169  0.0417294644115032
  0.7483961901812890  0.0253595335738481  0.0381069383208086
  0.8026784452031421  0.0202825770271176  0.0474391659079672
  0.9093717169859445  0.0228747490972907  0.0432616784961226
  0.9698294259033702  0.0223559899232200  0.0426796245607406
  0.0439689235914642  0.0846878487787706  0.0463841580954636
  0.1101153205975010  0.0861311538150886  0.0402321562086598
  0.1886840539405696  0.0998737471567424  0.0385000844641397
  0.2571866527141538  0.0927516152613350  0.0341493360787055
  0.3252465202386929  0.0922712770838743  0.0343833616110771
  0.4120606689861859  0.1135581575399698  0.0418192714535977
  0.4913239292756231  0.0988471011796364  0.0372018483653989
  0.5650620682739387  0.1059091986744107  0.0363176225123070
  0.6248592590847508  0.1067965747784143  0.0420187406750614
  0.6875533797411819  0.1104080513177053  0.0458961933545794
  0.7615263473487914  0.0980024489094831  0.0411996395567158
  0.8281994626211073  0.0924764436922203  0.0486735134589509
  0.8885837087658928  0.0891762015492645  0.0462807980108835
  0.9730077099306413  0.1007294316098779  0.0432420294989342
  0.0542676697295477  0.1732437037847632  0.0429813572546607
  0.1125295376091202  0.1640325355410539  0.0442890347457237
  0.1801436797543943  0.1552279385544821  0.0417395605045243
  0.2574318785075178  0.1692367557355396  0.0383146417028044
  0.3284151645303197  0.1641539940862273  0.0381139820612191
  0.4107789645689692  0.1752604896833816  0.0407494409866516
  0.4776888523138041  0.1721960035268566  0.0378114867741175
  0.5591495069674082  0.1838201709821021  0.0398954893179848
  0.6192702420878078  0.1777651267515097  0.0454414194897410
  0.6894583233164653  0.1766362220344533  0.0413034492416955
  0.7634516630554415  0.1791731901426203  0.0387205277662801
  0.8345856478187841  0.1716477599532524  0.0428454388111135
  0.9117169871485871  0.1655369467336953  0.0357575937904997
  0.9704317339476560  0.1618271868940724  0.0475342174538156
  0.0491121503791945  0.2410790109407870  0.0418350203044895
  0.1204950544924017  0.2417393424518011  0.0418508178380392
  0.1926258043691220  0.2493015788494333  0.0358225674879193
  0.2456743073075245  0.2345407831712691  0.0423524127079986
  0.3247134948658825  0.2304416480219231  0.0383548424120548
  0.3976924700665450  0.2320066773575178  0.0430232430015280
  0.4868814646151947  0.2366825030436104  0.0408334187057591
  0.5567284152544545  0.2530847986008595  0.0444727075540001
  0.6392576201394604  0.2454455753001099  0.0377779314439621
  0.7083121392763658  0.2524036370681202  0.0404614229749285
  0.7693607277405192  0.2498223701268785  0.0419058523223370
  0.8391084715700288  0.2421094818991492  0.0433102845765703
  0.9085341307388504  0.2360575878527911  0.0454915612977871
  0.9696064344057476  0.2309701300850975  0.0442358738798134
  0.0491578342414201  0.3067393121285207  0.0384469823431104
  0.1262848487694015  0.3182416765574700  0.0352995541069347
  0.1882084937152015  0.3021220792730830  0.0401545558446443
  0.2659963643322669  0.3022631233193351  0.0415078373063693
  0.3327123301652861  0.3038469594280500  0.0445410085208877
  0.4176972393899732  0.3039368257291812  0.0482788060877510
  0.4738039604621846  0.2928784768049297  0.0461626018908774
  0.5544752661680121  0.3214608848295057  0.0460273264621591
  0.6224908831336435  0.3055490434739738  0.0426779468529688
  0.7037256260231857  0.3181903328678573  0.0368347774699131
  0.7749370342014856  0.3443098596493002  0.0348489258586895
  0.8397985009449656  0.3120156132210496  0.0375469856441626
  0.9105348573411334  0.3102474351731672  0.0385388913788063
  0.9769632554643906  0.2996642852237272  0.0438268039580763
  0.0318313168198756  0.3738731142351099  0.0435024193340894
  0.1086951265016154  0.3754203498243101  0.0412482401547081
  0.1979021472508151  0.3681507432513698  0.0384785038029491
  0.2625895735848189  0.3662430520418454  0.0416873616625750
  0.3338911361228512  0.3720915829174700  0.0392223262747464
  0.4093497529795798  0.4007793344181607  0.0372410019761062
  0.4715447976919052  0.3842520348916594  0.0389974108330620
  0.5277813500229556  0.3694141080726112  0.0462734301598573
  0.6146621527035947  0.3962274924181415  0.0427658935600377
  0.6706533878401828  0.3858440432376113  0.0415738124218876
  0.7449928142820141  0.3873095755025204  0.0444469452336520
  0.8572470901402838  0.3914782076554602  0.0385326811473874
  0.9100368475608889  0.3797994161968106  0.0394276497394017
  0.9790156635468392  0.3848137835415741  0.0384793500236285
  0.0444263026511109  0.4496719739371500  0.0481714416970220
  0.1084338308864119  0.4537937198254980  0.0398639659583040
  0.1813789797311998  0.4430123366858751  0.0308609088202800
  0.2515778779268842  0.4479342962491160  0.0353192427899813
  0.3268250778941209  0.4503130747966466  0.0456735407484459
  0.4014023619961904  0.4565333615423270  0.0402241807418946
  0.4771038316849214  0.4769692517959996  0.0402382810080155
  0.5222104838152504  0.4552107183471108  0.0372723043033361
  0.5857195422722299  0.4389745718829516  0.0446844965167728
  0.6859857994966774  0.4572955634509768  0.0404262450928101
  0.7443416836624195  0.4466589409298365  0.0427024370896945
  0.8248536135396733  0.4359074395728868  0.0359574931501427
  0.9070614455451320  0.4688413829692450  0.0350098966336390
  0.9755447760959370  0.4490397425724737  0.0449873589605119
  0.0391096061528486  0.5240639989823990  0.0390800803969711
  0.1197201336365268  0.5336620346608214  0.0321016082071779
  0.1839984924760500  0.5143056661994336  0.0373657645197270
  0.2520675363049634  0.5275710005634622  0.0377051579970171
  0.3164486635701707  0.5138360342364479  0.0397607461308738
  0.3839596733945640  0.5285983539916757  0.0320015000064586
  0.4622429578873053  0.5352203111022931  0.0434514915119877
  0.5601408749191066  0.5434563371442493  0.0391448266088972
  0.6155442922852572  0.5204942954282785  0.0438794446625721
  0.6844386886371296  0.5204644893410020  0.0416428092088310
  0.7590869756595211  0.5242446363565492  0.0382184538860528
  0.8087154829306229  0.4972999799803759  0.0371718474859648
  0.8816906454010862  0.5166586311247769  0.0354431912209918
  0.9784103217838265  0.5308964112625247  0.0402271452417935
  0.0563482880783894  0.6123370006815207  0.0453460654629723
  0.1178332382305882  0.6030352217806296  0.0375977356430397
  0.1830194943610692  0.6029674172466954  0.0447722822469316
  0.2435326485408496  0.5938460328901058  0.0407801099225154
  0.3201671720537007  0.5932815356766881  0.0439716031453798
  0.3933409016044038  0.6054107949174181  0.0386967478874709
  0.4690094962035118  0.6191384411192971  0.0406308668111066
  0.5335307630146886  0.6036745045480174  0.0399531937810522
  0.6279967843581389  0.6140889608434534  0.0347252695265254
  0.6911225572196145  0.5921889266199187  0.0367372421608749
  0.7508197405969383  0.5980609572934554  0.0444517491752308
  0.8327552200210846  0.6017864413133509  0.0391010122248545
  0.8980988358076445  0.5899068395437865  0.0383204823022325
  0.9654101237492085  0.5922377524750502  0.0440306309617071
  0.0450416179890283  0.6678950203594596  0.0442373769801563
  0.1224905469265281  0.6700339878592629  0.0447477003197960
  0.1920508621852903  0.6643284352542125  0.0338192250543301
  0.2712809145441284  0.6852351056357122  0.0404371009696902
  0.3201547103135098  0.6573303412964506  0.0464729865201079
  0.4137616912453410  0.6732191825684168  0.0440947900411786
  0.4888183686097705  0.6911870732722463  0.0408284879994554
  0.5486782028887021  0.6709282297655577  0.0392966406579518
  0.6205767326973302  0.6727379756711187  0.0370083339179601
  0.6989207323789941  0.6713861879986496  0.0421432801783084
  0.7729026967981909  0.6773732957258218  0.0410162730146553
  0.8355229494221916  0.6647477464379818  0.0407068580259846
  0.9166573308838224  0.6676028323958150  0.0440430898603452
  0.9807039053713709  0.6709202078464003  0.0443632455229022
  0.0463569066609963  0.7460977215903810  0.0425337337170859
  0.1143771013283725  0.7305375967764078  0.0442725272072195
  0.1857480786244636  0.7279156162337515  0.0417859633340569
  0.2607280815857678  0.7506073676210292  0.0343631239396274
  0.3323729529535981  0.7370526985112562  0.0369647240516642
  0.3950590115777786  0.7336131203090162  0.0408297440685530
  0.4761444842604163  0.7601144597042477  0.0421540404915888
  0.5510178618518680  0.7604503758359442  0.0426587630806452
  0.6146307557815689  0.7371958650190251  0.0419398062593856
  0.6949863411712300  0.7343126734298764  0.0327883450604034
  0.7718901746976599  0.7432322938519320  0.0453720337990262
  0.8452107153209170  0.7392272306761569  0.0431456552330047
  0.9075999100391243  0.7342570028385538  0.0417739883053230
  0.9711225314259195  0.7341863891074780  0.0399638047810740
  0.0470827669145706  0.8206405626474123  0.0451562180402760
  0.1101727814264848  0.8056083903015079  0.0451058622265990
  0.1738813672585948  0.7893913004469653  0.0428072016203416
  0.2563573848202552  0.8066748309178635  0.0434587587523865
  0.3359750993421429  0.8109456565558020  0.0409470010379422
  0.4014221390581483  0.8045228962490896  0.0430783173270868
  0.4764684805090411  0.8182425597865901  0.0446675914044761
  0.5635529808721671  0.8318118718899541  0.0427212987337668
  0.6242402525814441  0.8065186374523634  0.0409796642902123
  0.6753001872347042  0.7913849145962644  0.0376306244147315
  0.7685251302953944  0.8128870573946401  0.0434215506150792
  0.8423150830320481  0.8086814014767825  0.0447796478624198
  0.9056363206262503  0.8017654609192348  0.0465411195958652
  0.9760934952789100  0.8147689923463872  0.0407318062001494
  0.0497234068048371  0.8925580362605743  0.0432402042695799
  0.1214800634115676  0.8807782484008300  0.0414329734114602
  0.1802783072015117  0.8730159103127306  0.0440392378457730
  0.2490577860499599  0.8692665608457730  0.0439317890561668
  0.3220492444419349  0.8717713787876207  0.0404947466743693
  0.4084508454023492  0.8766527369443864  0.0424720010966269
  0.4785223747382119  0.8821278478452328  0.0429552587942368
  0.5516160222874973  0.8811134228823434  0.0404509961451183
  0.6272882179324384  0.8867481404000301  0.0419883685136497
  0.6886695490762591  0.8663582231298719  0.0359690990868629
  0.7571371992885929  0.8778462995902174  0.0465061838335998
  0.8383346732961101  0.8826213560066307  0.0437647206172187
  0.9128148547692589  0.8749589121495873  0.0413930351907439
  0.9721372352784883  0.8823525759043704  0.0464154322320525
  0.0457053244792505  0.9556282455055225  0.0407178688581027
  0.1264507210365764  0.9701340507239422  0.0491901958282099
  0.1867564870503173  0.9443935197352360  0.0400942841268872
  0.2508205386860354  0.9475815434087309  0.0439087308935200
  0.3211230132638363  0.9517610170927711  0.0404993380432686
  0.4016917715279362  0.9410907219987266  0.0415655885555708
  0.4709956514482201  0.9454230722841146  0.0405273708054139
  0.5367235620952258  0.9436484201820647  0.0425142902960900
  0.6178859328511166  0.9545034441137830  0.0444017560260903
  0.6903817894616822  0.9616857407995880  0.0491942566867749
  0.7497887868233164  0.9504442998359224  0.0442594616824792
  0.8263111112252233  0.9518825948682306  0.0471872685266561
  0.9090966000361149  0.9527326856852838  0.0357798377545535
  0.9887639601482050  0.9600704568266565  0.0446074553032290
  0.0252462320311011  0.0370836561638370  0.0730205711568175
  0.0897360969455718  0.0403010806902628  0.0798217320232908
  0.1624004102777690  0.0447332613394735  0.0776796749577215
  0.2341584566818469  0.0445502130826583  0.0652804954114785
  0.3100213505342850  0.0610596344600012  0.0596674094611274
  0.3876544739692136  0.0403131461686783  0.0622318275350295
  0.4548495443363407  0.0486892877263614  0.0634457201237879
  0.5258011218924210  0.0582711852828268  0.0639974948836937
  0.5845924191308995  0.0526103642760702  0.0667342907786050
  0.6614241978215674  0.0383679169607021  0.0712571601541256
  0.7306577142310005  0.0383032481263399  0.0670265067185269
  0.8105663255100808  0.0569192981283067  0.0728676336875296
  0.8675293783219828  0.0327959033678127  0.0667474144027409
  0.9489388035488773  0.0344697727146368  0.0714006849248534
  0.0152880435486438  0.1044634381745766  0.0757136535003440
  0.0965385021472684  0.1114690835205394  0.0706587836119041
  0.1591533752453458  0.1133590797731543  0.0674769693858721
  0.2308419364640457  0.1057208778321765  0.0658790467955868
  0.2980216906173894  0.1207362558376488  0.0707647091051129
  0.3786979658788141  0.1110784312978694  0.0666974562594902
  0.4627089050937556  0.1205922040748959  0.0734190887596853
  0.5273778528121511  0.1248992033459686  0.0649419635724797
  0.5887865242916845  0.1243018069426753  0.0730074560800986
  0.6609319989007361  0.1094199478021309  0.0750929656187580
  0.7283876422696238  0.1065710668754676  0.0747078626293103
  0.7974598446695467  0.1164180665107253  0.0727371564315789
  0.8781061203100577  0.1055084416352230  0.0778720250294569
  0.9487376682499189  0.1028017982637621  0.0734125172909188
  0.0423136571282328  0.2030013042792334  0.0677426755188222
  0.0966078657232430  0.1868603724765663  0.0690128612488721
  0.1714822912879725  0.1856294567462058  0.0674902328809850
  0.2333610654829812  0.1730443788190783  0.0680332835074111
  0.3115935839612831  0.1921348495559485  0.0676601940418564
  0.3630235629230327  0.1738864241266711  0.0689966112333380
  0.4483995986834870  0.1805815575518537  0.0660527306615251
  0.5116053391083426  0.1919923688720147  0.0653649776886596
  0.5858032363505785  0.1930748210118836  0.0695683196650592
  0.6674994774046041  0.1852330157699171  0.0698492414935714
  0.7243254514417075  0.1750840358824135  0.0687318578548499
  0.7982649422071049  0.1826859364665268  0.0654125264263143
  0.8724588035087564  0.1828179418299882  0.0686420073248897
  0.9439367143694639  0.1854475386891608  0.0704457151107363
  0.0188748659283675  0.2536798693573203  0.0672714508426111
  0.0952307916729609  0.2690745419587657  0.0724646361003920
  0.1690115827041154  0.2576285791179842  0.0691608975367970
  0.2412938028212821  0.2728704967672755  0.0716317807387838
  0.2838395325754490  0.2436613838372779  0.0702005267872039
  0.3735641053791880  0.2625643787500138  0.0703657643757936
  0.4410728639577215  0.2609494528981955  0.0697828226157498
  0.5384409965641623  0.2818399762578352  0.0697848382728736
  0.6111606163866057  0.2756677149041522  0.0716775852627833
  0.6627257689857373  0.2505242029252770  0.0673897472679741
  0.7321190985886261  0.2415335982799576  0.0730475554259229
  0.7976914654441885  0.2488078525074755  0.0735849102652111
  0.8785202621620343  0.2546487985130739  0.0718252753198527
  0.9480108609467024  0.2559913488542946  0.0712115592337881
  0.0207545516604242  0.3235773850943389  0.0700500781939155
  0.0998089449302881  0.3342872522224880  0.0659811313666836
  0.1608853747008396  0.3252648984370197  0.0674474828336500
  0.2253048480950142  0.3261439175366263  0.0661770754397111
  0.3172181091154798  0.3437222631529480  0.0679342539634220
  0.3809752904500030  0.3459406385981296  0.0674919189532304
  0.4461339415497747  0.3307509961722062  0.0741547644176848
  0.5204463528745080  0.3342392048664706  0.0752011454999959
  0.6059571181652785  0.3391276549515254  0.0751172091071766
  0.6725251976459887  0.3404168446779323  0.0676434791930234
  0.7435154849467267  0.3263566926009602  0.0628020264855635
  0.8150446145144272  0.3340940042012406  0.0616413972418499
  0.8663589053117278  0.3097841496377072  0.0688561709371172
  0.9424620251491973  0.3246145730365768  0.0646572841763913
  0.0181808589634684  0.3935961787112632  0.0695985992973220
  0.0962626472351005  0.3982594678007843  0.0680448972458620
  0.1741925509109734  0.3983952829322490  0.0553741180357150
  0.2341773702174876  0.4067213610541174  0.0701233601821798
  0.3091481574165584  0.4131921170881796  0.0686760409703950
  0.3901528857479377  0.4256744277961957  0.0665087636769570
  0.4510082316982178  0.4136077281891843  0.0737549946162588
  0.5122498432605340  0.4133786917649402  0.0692924951837313
  0.5775362407156379  0.4035111110176075  0.0702381600529307
  0.6659040376979419  0.4098628444315437  0.0709363859909047
  0.7304180853478996  0.4151534833629782  0.0715052431435907
  0.8060421856982742  0.4007032608169823  0.0639267063749784
  0.8810675153851264  0.4083359904199924  0.0638367026394064
  0.9532765674001524  0.3966642703292393  0.0676838161779543
  0.0236017991948145  0.4740085113181109  0.0730840821661687
  0.0860002557189361  0.4538828407575011  0.0703958185940579
  0.1664988369383025  0.4663197219443234  0.0579807634632985
  0.2393834638111372  0.4822626723537553  0.0628366099588362
  0.3070468143356919  0.4845095358698046  0.0664253808091999
  0.3761844296219010  0.4787590561919473  0.0690321494206998
  0.4586602065038008  0.4906594745037154  0.0708138451672511
  0.5198372729594425  0.4814312477093097  0.0677456784519563
  0.5860901059054839  0.4827952047816666  0.0710328670353917
  0.6422352875244783  0.4625342125169851  0.0684771714886523
  0.7344591537095582  0.4875472253467024  0.0690837215652707