super cell                              
  0.89575888371708945     
    22.2041630040554239  -38.4587384625651936    0.0000000000000000
    22.2041630040554239   38.4587384625651936    0.0000000000000000
     0.0000000000000000    0.0000000000000000   95.0096881999999852
    7056
Direct
  0.9990885757699567  0.0429388001161432  0.0265353144792693
  0.1313399244566467  0.0371419299336690  0.9961885180602048
  0.1541397365567185  0.9800016237486405  0.0104121921331152
  0.2550253694733242  0.0234344448078385  0.9864039007709029
  0.3357598085349018  0.0538825063873811  0.9477066455695432
  0.3923055243254360  0.0695232816821020  0.0038665282773442
  0.4573874411148877  0.0713162482772137  0.0265812937428951
  0.5332788688226253  0.0924190700717231  0.0164879140628114
  0.6204597607519979  0.0492937028524847  0.9903102223291409
  0.7627442236870231  0.2233059270322946  0.0477563032527974
  0.6457123035475997  0.9283368166618708  0.9857800473426178
  0.8784984322739272  0.1352326058139039  0.9952486877602660
  0.9384207081559927  0.0961293188134864  0.0297267917153695
  0.9270423640234365  0.0329637031559939  0.0133187594543947
  0.0746444588537270  0.0495714547884563  0.0293368678696198
  0.9972681972920054  0.9636564870134063  0.9951594925231162
  0.2035026896617217  0.1676079955695297  0.0246124644026527
  0.3700888029769911  0.0782335728428597  0.0309749643327054
  0.3595983513658541  0.1142961934790758  0.0035618204986984
  0.2792991295893160  0.0892106384357878  0.0002759246549738
  0.4321907122847230  0.1181077405343750  0.0472975332504269
  0.5901539434162019  0.1403842046623553  0.0346825902639672
  0.5579152309209533  0.1731832700866313  0.0187536547505382
  0.5896713048078643  0.0932027280946779  0.0047783270175467
  0.7073806827889231  0.0391829497932615  0.9870602044050070
  0.7416435167477049  0.0610329789725073  0.0235154216650454
  0.9120381143975963  0.0535448636767019  0.9873439307340095
  0.9820163347760551  0.1159135061911973  0.9814520668438418
  0.9914128689191044  0.0966506571499910  0.0127151443482588
  0.2621691726131561  0.1701452909475122  0.0292074138060069
  0.1825642064279266  0.0338504440565584  0.0429224576934606
  0.2856652459699930  0.2687594556762180  0.0368343297613810
  0.3486714258660500  0.3285117663791541  0.0245533166394468
  0.2856869397014107  0.1540581401580056  0.0046742993107975
  0.3559603948389332  0.2229641547512473  0.9991074615725279
  0.4994520102339081  0.2750729549693395  0.0191761614672744
  0.6213749440888747  0.2308821494262887  0.0101471545572169
  0.7115399616591770  0.2395385154079641  0.0166967388636510
  0.7154934268376201  0.1566934094168169  0.9892019180345719
  0.7871042164638665  0.1734632802143720  0.0334074815846958
  0.9327857518060851  0.1164201800943345  0.0029425765795508
  0.9965534849595313  0.1693833721782132  0.0233530670592152
  0.0758083888166451  0.1129165612326655  0.0081440994860223
  0.0609811227054812  0.2260799941697416  0.0364849812714369
  0.2209115102104536  0.2948655770949319  0.0401028939309034
  0.1743368094732891  0.2791028292967546  0.0138434501465503
  0.3347128842908847  0.3545112686679392  0.9761956585605261
  0.3866616982332859  0.2973119531009824  0.0138850504667194
  0.5496099987063539  0.4170113784840121  0.9544781007526308
  0.4596181528534589  0.3184270680812373  0.0355273720672507
  0.6233219566279961  0.3172707383385939  0.0203214844199488
  0.6862426912145635  0.2801755074105398  0.9964770258179113
  0.7667318400407603  0.2719387381423525  0.9941410448313409
  0.8451627417212207  0.2360327099535926  0.0100633280029774
  0.9267121529568612  0.2920377661028764  0.0305160610074495
  0.9193717769132810  0.2420441668656369  0.0020380100785536
  0.0276344581927510  0.3478971466881830  0.0316571781412602
  0.1765176589916255  0.3544702891651373  0.0191976276610708
  0.1321552574119951  0.2842908271564981  0.0473525195257910
  0.2411585738048269  0.3627683094375966  0.0312373062095341
  0.3415013276988627  0.3812516423871445  0.0062695764946442
  0.3747045773711288  0.4581472801200541  0.9940647423592643
  0.4136873446132348  0.4108609764335626  0.0167538018659032
  0.4994775054482131  0.3371121180427446  0.0012142679388022
  0.6677740757532614  0.4314157039343325  0.9794370371802599
  0.6663215958188404  0.4054100317168588  0.0136500167077042
  0.7731104250871732  0.3467549872547421  0.0285544055028022
  0.8930161483551383  0.4868368901667014  0.0226182294325545
  0.9689719737368589  0.4211687526435577  0.0118086803079600
  0.9834121509116135  0.3711297811333412  0.0179129030452342
  0.0340738250282798  0.4583987601997181  0.0234174556049661
  0.0924294067218153  0.3923692255027873  0.9918089653155721
  0.2042588767886854  0.4214455705630278  0.0016167817311407
  0.2333894227009836  0.3756773321914891  0.9938225486108826
  0.2947833449983109  0.4261892883191318  0.0069855791295672
  0.3897218252040372  0.4599659005820873  0.0209830355527558
  0.4497744120038415  0.4420964458060929  0.0417665174477345
  0.6081098604386685  0.4860508858107827  0.9814057871997904
  0.5926815850893726  0.4056000911472467  0.0012675898084986
  0.7798081530022332  0.4937427554574333  0.0253289963312737
  0.7429636286115660  0.4666366018387819  0.9895022954410895
  0.8344833401149372  0.4081338879321088  0.9967809393684088
  0.9171645161601911  0.4345514132119283  0.9717062411049298
  0.9871993568742556  0.4947649755854078  0.0055625070942156
  0.9721429509245486  0.3909887837375534  0.0434365539100164
  0.1295851877301709  0.4842892374604361  0.0112689820384882
  0.1565267664750257  0.4465956724842192  0.0340469382413855
  0.2135951997264077  0.5017812073612963  0.0118597872069441
  0.2716482931137637  0.4818280610557141  0.0036731370027559
  0.4087848405895410  0.4222390385530897  0.9890959994098882
  0.5527958338130302  0.5485529028378107  0.0209840214714664
  0.6077008759984046  0.4871820972270465  0.0334206265607122
  0.6439145231826994  0.4568590916367620  0.0262639890276004
  0.6027775981640587  0.3759813334417817  0.0322789085982613
  0.8773357207951366  0.6001762400444227  0.9993548362724034
  0.8400620628314472  0.4903730310492350  0.0400118742087684
  0.9426126057273625  0.5193716688781561  0.9840558211347984
  0.9851233300446329  0.4353389919920034  0.9831348908100243
  0.1086468014048122  0.5905286692665628  0.0143034691672226
  0.1442737651233689  0.5454200250918486  0.9974893925074519
  0.1919378892589263  0.6029481737108174  0.0258930370118810
  0.3383217998821089  0.6059874359681909  0.0240201196514087
  0.3502824376342146  0.5512719604982665  0.0263870626870716
  0.3035959992591243  0.4793599541835035  0.0423528019236744
  0.3792346488644940  0.5800360715485956  0.9583645790285586
  0.4419431350257496  0.6170321731899778  0.0457103017190496
  0.5371317384597827  0.4174499624234377  0.0155427788394949
  0.6903276930783105  0.6228882705984223  0.0318439762719400
  0.7671974632657134  0.5686618083262597  0.0236998187574801
  0.9843359570710337  0.6771153800000712  0.0487075297842835
  0.8170477192326646  0.4675485204211907  0.0084911605068676
  0.9724396938250761  0.5397689941361420  0.0162381194998380
  0.0519803409005360  0.5977687757851402  0.0104662885184909
  0.1628571272895355  0.6594808426677959  0.0009118853488397
  0.2742744093993174  0.7230488239856699  0.0429605900108761
  0.2707185896981501  0.6451429548361117  0.0247195709960919
  0.3295617181808735  0.6524650980309512  0.9659048019826402
  0.3839854061194690  0.5654733689633759  0.9983137350983690
  0.4449332335229856  0.5874933551485537  0.9676719017911312
  0.4283184979020569  0.6309699041021996  0.9859146280600816
  0.6148819394461359  0.6168952805613701  0.9990474723198481
  0.7424824047312805  0.6855051590140360  0.0130435159379930
  0.6697923353923164  0.5513945029334490  0.9836805158267981
  0.8410739662590554  0.6183439124662484  0.0256140019629663
  0.9403815402583944  0.5851129366147160  0.0237630015100083
  0.0023287489737367  0.6015360375047144  0.9954925237309458
  0.0274734507376814  0.6457596911247798  0.0207560232205514
  0.1058474668712081  0.6623984149256439  0.0263148525169489
  0.2320502532284894  0.6972908921346932  0.0189170150301145
  0.3120359871754411  0.7166630980848424  0.0174618359338914
  0.3038513220344172  0.6240764710966292  0.0007679690031124
  0.3386035027713264  0.6971139689202319  0.9939281026196425
  0.4679707966426990  0.7330135482915052  0.9889554273081698
  0.4705029530995184  0.6166924121177353  0.0135885826038298
  0.7010537429548643  0.7441863880111508  0.0358645463031572
  0.6724478564644664  0.6886609035018590  0.0147300369883077
  0.7744843516010498  0.6400041292858195  0.9866643379754194
  0.7713300972401126  0.6318551805762685  0.0147529222730125
  0.9315098445808594  0.7286250077171186  0.0519146536112053
  0.9250270259412530  0.7024224597563580  0.0227660197403493
  0.9978941009088164  0.7660064268593264  0.0052233698127180
  0.0608664563520437  0.6200338214438706  0.9758627471099361
  0.1910834210304138  0.7271152399821861  0.0228933249108271
  0.2459082718923153  0.7448184992344333  0.9963027407841846
  0.3213801184335293  0.8046037391447913  0.0411220045507947
  0.3852258670999311  0.7886129739070783  0.0234040601547117
  0.4126213668262759  0.7483409278485655  0.0072049040727766
  0.5103120291872603  0.7879734364160789  0.0145995844220606
  0.6000369063860548  0.7635381898690532  0.9997195585344961
  0.6447230167369142  0.7507509889907756  0.0544186680057578
  0.7846851946280869  0.7646669048371212  0.0296187598178245
  0.9273835507882557  0.7436308871768731  0.9978968332955610
  0.9037213284329081  0.7565231123131460  0.0292911400889712
  0.9335936396257208  0.8157701464174338  0.0505171377976285
  0.1203617814997157  0.8979071110544576  0.0011333106542323
  0.1224003188543639  0.8822855673344490  0.0351161758651470
  0.1505726401882442  0.8102484650656012  0.0464743106198838
  0.2072103180715723  0.7960352141185497  0.0059429669231659
  0.3324706717732180  0.8652576778715189  0.0239632290081236
  0.3786374106588030  0.8653306221143001  0.0009583792486057
  0.4835072192470263  0.9053538171783826  0.0118170317361954
  0.4560456321454935  0.7941394731059174  0.0254850390185335
  0.6041832920297785  0.8321558095510532  0.0121455737301670
  0.6716286751795022  0.8130550359368786  0.9852298771705192
  0.6713848143389435  0.7668874974241731  0.0120316804546260
  0.8643654720663068  0.8276854288820978  0.0497419300347874
  0.9777563203209718  0.9623198595290987  0.0262115950707278
  0.9976006481642130  0.8674630850009096  0.0349831591855406
  0.0222763864067367  0.9206633933585242  0.9858750214887583
  0.1287438411469058  0.8250371781640441  0.0128563576445690
  0.2289755386965411  0.9219652512801805  0.0114980539654623
  0.2787341172270297  0.8714993774797262  0.0095685302972122
  0.3560260165303810  0.9385681422354277  0.0180461417953637
  0.3423745178774648  0.9206794494024141  0.9555826677659719
  0.3860823293763348  0.9293986853538264  0.9860435988549422
  0.5447863405105648  0.9239883169132193  0.0461966397028650
  0.5810098646369796  0.8706455522382291  0.9938183575191036
  0.6660508081125953  0.8809014559256397  0.9905625690887162
  0.8095604285752475  0.8925315016735074  0.0195658558062286
  0.8040720850303399  0.9630153002397467  0.0289068848628108
  0.8315111967901315  0.8759239034014701  0.0900854000033613
  0.9356383567873148  0.9964498635633576  0.9839814746443759
  0.9398136247374005  0.9326399625607871  0.9786115308032659
  0.0713002326817451  0.0935368527861689  0.9788185056254743
  0.1970332502661412  0.9589764724369216  0.9972570298996629
  0.3016855816643356  0.0473706854615991  0.0151171559996274
  0.3126144811107913  0.9813949681477757  0.0101606896465106
  0.4283033997870901  0.9979598971907927  0.0090742311984991
  0.4710424969140235  0.9553290637965819  0.0049099471008733
  0.5261636157524550  0.9681369492962540  0.0307188319853373
  0.6266447730990159  0.9853704193512384  0.9985878676200051
  0.6326123706452614  0.9099498389658436  0.0187636912319224
  0.7478052075624314  0.9693757423325476  0.0416083227865296
  0.8017669768294872  0.0693758873727921  0.0083701225434957
  0.8474669514214120  0.0389151263225806  0.0175799785669784
  0.8586835885719980  0.9822717058301347  0.0001112437462909
  0.1450229731623948  0.1118297186931260  0.0395293886927956
  0.1483736578895192  0.9758703548336326  0.0752084497608506
  0.3238502582228914  0.1145951000489497  0.0361809768039244
  0.2286877921971376  0.0233929250655817  0.0222484872667924
  0.3836892937134689  0.0147338521760637  0.0252489044154266
  0.4190680383975967  0.9783157819716607  0.0448226533967702
  0.4814492114999755  0.0040334442214175  0.0299399015769673
  0.5594191783508674  0.0508676907439924  0.0347308725007414
  0.6270655778079750  0.1034765768736574  0.0299519548466195
  0.6506305477917717  0.0721072081059155  0.0454608437538299
  0.7939411925830331  0.0417786344158435  0.0383175743558859
  0.8286895807177161  0.0038054082258309  0.0539368626579852
  0.8797164519665198  0.0173541495572602  0.0365172345200725
  0.9370900937743050  0.0065829501694138  0.0429054279848050
  0.1207285071737233  0.0166386407817699  0.0619817650173535
  0.1190404841934213  0.0104175933373672  0.0283065005613236
  0.1826495373051785  0.0809961364058484  0.0250023943348406
  0.1912748852814065  0.0346156368623570  0.9935312995276936
  0.3221961069366786  0.9867863360697295  0.0419813734707526
  0.3982803423826891  0.0427973618969133  0.0536020128417621
  0.5169281409027340  0.0785342487701410  0.0497534060843219
  0.5860060804689451  0.0596822344080065  0.0615901738687304
  0.6672721798545896  0.1002417234836274  0.0064076940432652
  0.6685795336073808  0.1686195355861443  0.0825987883518519
  0.6097944609511970  0.8484599647488889  0.0446510542827612
  0.7982481019608875  0.1116106049570813  0.0476901080174630
  0.8823575379534633  0.0865699448063935  0.0486218515632265
  0.0102978158531476  0.1107414182329748  0.0384240029726101
  0.0900244695885538  0.1364047531449642  0.0449832155403601
  0.1235887951379206  0.2283628749085916  0.9890055067313710
  0.2004429056419845  0.0901968709932468  0.0601799198109479
  0.2730783315192073  0.1265303733163371  0.0644169119746732
  0.2583263036191033  0.0959836039673036  0.0344773445910835
  0.4468552367557828  0.2077835691678443  0.0162926661824824
  0.4989938725400878  0.2005094583022401  0.0326247865862490
  0.6340141417257191  0.2104714315683459  0.0445315226819266
  0.6891628462903482  0.1990480710889790  0.9899506429512346
  0.6520727626134468  0.1736342167482637  0.0207834946114129
  0.7220838976726330  0.1060022950888467  0.0355726199084226
  0.9296850489951849  0.2190697058330938  0.0380479653136940
  0.8595534911529011  0.1252935074515164  0.0284622723499688
  0.9328468873882321  0.1530563605625207  0.0460786397991122
  0.0048635053738196  0.2322969952280861  0.0440256328670876
  0.0806794755918781  0.1689884334613520  0.0227652741002938
  0.1468616254851594  0.1543522190295382  0.0633988136471506
  0.2141333866292734  0.2222336994514176  0.0462059368303036
  0.2978302169177967  0.2300898992011123  0.0542157995825023
  0.4183489578040147  0.2368880897605964  0.0450269261122098
  0.4623350409425101  0.1879520740741931  0.0569393363055325
  0.5407082107279693  0.2184739842486052  0.0551437444408045
  0.6730588540700014  0.2880580461041899  0.0311093911406031
  0.6815034435372950  0.3733593612464465  0.0382666291943789
  0.7185621425587804  0.1705641405980478  0.0225937808138300
  0.8305087251748487  0.2476387418774708  0.0385515624468744
  0.9734941146841778  0.2687289840062806  0.0629800341566106
  0.9856031467084659  0.2734765398766144  0.0212740949723562
  0.0530995230854593  0.3482399610385269  0.0765684933583527
  0.0392879633568646  0.3006405605323122  0.0473610826605355
  0.1516758669481078  0.2395445267835157  0.0367753593443453
  0.2989007450233828  0.3452153633109693  0.0318272602446731
  0.3445525529299058  0.3156074597005572  0.0581600491359567
  0.3911652793764395  0.2785114473487182  0.0431233763485448
  0.4576197494978828  0.2856210021940123  0.0657262943191297
  0.5966780264695223  0.2452658015560560  0.0402716304455886
  0.5301841822317770  0.2873635629492320  0.0736825030467026
  0.6407021577993751  0.3201233262595141  0.0568330791190802
  0.8214998254632573  0.4187741447499149  0.0302035777790025
  0.8335239947734889  0.3512221976716152  0.0437728407859721
  0.8542099912798090  0.2006027723628171  0.0322526490765772
  0.9877770358919034  0.3399444532354310  0.0558925825626939
  0.0539196038326183  0.4204269145691680  0.0581337739532799
  0.1310454627891300  0.3801081092268084  0.0141073751901024
  0.1851967681581076  0.3434765137792887  0.0565023969691949
  0.2640755080944872  0.4158608103221055  0.0563198810104574
  0.3106713860234798  0.4112638136751285  0.0351092078132680
  0.3692467205916338  0.3987558718929893  0.0498153693776184
  0.4583457739931592  0.3771114871869091  0.0143269925847623
  0.5321231067060348  0.3515512596474885  0.0277957644736445
  0.5700753873399882  0.2987146071206787  0.0423287435166793
  0.7145954922180925  0.4530170858640964  0.0474216326805886
  0.7620628859781887  0.4155995009721000  0.0423743130619825
  0.8845434729056644  0.4114572853097664  0.0266660311200578
  0.9261278435824231  0.4136748877804035  0.0548703925650192
  0.0473668658200440  0.5392296299352283  0.0315167094099463
  0.0993209861185115  0.3942691317122575  0.0489242178268213
  0.0925941929709096  0.4696071615840682  0.0366598849340333
  0.2415252774365240  0.4920692850338087  0.0374141656693196
  0.1710846437970324  0.3922816781002419  0.0403067743522362
  0.2469643062877026  0.4313464520469214  0.0263969175235754
  0.3852775043722502  0.4795388768642728  0.0496992471850318
  0.4476327766174726  0.5082855440093853  0.0388213178810098
  0.4903179329795580  0.3923789217928695  0.0431739945597828
  0.5815850827644642  0.4225628931702409  0.0501814530223443
  0.6048552738988062  0.3605200646441574  0.0655840919145033
  0.7848685333025924  0.4853618353442821  0.0574124745814350
  0.8261891503374681  0.4491135835907256  0.0699362724629958
  0.8785453790370316  0.4538879460883641  0.0499169790806452
  0.9546225633430532  0.4788914874541305  0.0343610562378000
  0.1253117775906655  0.4862031735835418  0.0645131688851236
  0.1155758601328211  0.5413929916761886  0.0284648054362058
  0.2213310397581852  0.5681688326343667  0.0017052313927112
  0.2701339407955710  0.5731228972859368  0.0284370578515051
  0.3183877126023283  0.5523976271725507  0.0507385646169938
  0.4991448526712439  0.5727380649491294  0.0216344326838060
  0.4747736238349395  0.5742143679024623  0.0509122651924781
  0.5293309337936121  0.6397080457790453  0.0331952272970196
  0.5323827005322193  0.4678712370747117  0.0379421541156370
  0.6433713925691268  0.4221363205274373  0.0523269961947723
  0.7201184955754324  0.5185268581235177  0.0406954925032416
  0.8485463110636349  0.5521590445015853  0.0213648310001734
  0.9595554448604569  0.5392876405558439  0.0474167306208135
  0.0735411050103384  0.5111116994308054  0.0545905715139100
  0.0221461508919421  0.5898210146871641  0.0416945058329600
  0.0900763109071904  0.5887455281322206  0.0480696770547081
  0.2195451065237612  0.6437332657066158  0.9997075426401720
  0.2305124403384741  0.6539991840554686  0.0507577497632626
  0.4178870016112684  0.6252107060187684  0.0194476580431561
  0.4084673276330263  0.6704185104388988  0.0435504454544433
  0.4825219230694450  0.6831301380184452  0.0051676408262408
  0.5603255081417282  0.6254252795056531  0.0029540489498950
  0.6350951067096136  0.5622987628748695  0.0148610127709093
  0.5932703760744632  0.5472620084676469  0.0441791254941620
  0.0689763295568179  0.7239447221535789  0.0384376138468402
  0.8999308661352950  0.6520530733840714  0.0457617495434360
  0.0614992000388488  0.7660124473728623  0.0155762521498737
  0.9667577025612414  0.6084639210602795  0.0517139632210729
  0.0354221612977468  0.6553066430199332  0.0519501181414019
  0.0784223507456822  0.6907530902272310  0.0733218080899374
  0.1590421662227769  0.6458707824693594  0.0333933451146463
  0.3394999163281135  0.7219389623846779  0.0485619755192934
  0.2512391777130750  0.5984515805523640  0.0533806022519936
  0.3910116741419133  0.6719392114871374  0.9962128855247442
  0.5364216390458754  0.7503975820433149  0.9888178564462251
  0.6113416861432360  0.6659419439858341  0.0503523077212397
  0.5836670450406048  0.6092291818182500  0.0793692474978853
  0.6878530822074397  0.6148450150848759  0.9946552715988006
  0.8515164643946074  0.6861674320873501  0.0422393400305566
  0.7731907176913965  0.6294240286731626  0.0440916531351459
  0.8737852310075357  0.6894730584328054  0.0706377585780537
  0.0896149274578076  0.7608303008703083  0.0634129527448266
  0.0783969570539610  0.8059077739813775  0.0404495413424452
  0.0768716224615736  0.7128485931963392  0.0069113910337964
  0.1064539581327728  0.6580029002126511  0.0586515019360562
  0.2647356437435189  0.7926558605404113  0.0224312670367373
  0.3674292201872323  0.7742475390940644  0.9899479638265269
  0.4102344476428844  0.7462192463947058  0.0424544245916646
  0.4459331478655366  0.7127202449667839  0.0194376800788810
  0.4859642471377806  0.6907729359849272  0.0423574285164192
  0.5613700050445536  0.7046698037764796  0.0451800384705243
  0.6783269769469435  0.6740462491631717  0.0475823652167570
  0.7434185016978746  0.6764792007325482  0.0467311712725216
  0.8670280761144795  0.8006086395524445  0.0805985052467696
  0.8559477582783963  0.7526724972517311  0.0498800315571831
  0.9993310591387825  0.7318319612027033  0.0295779938752636
  0.0742023339161461  0.9124571693717545  0.0145466717545993
  0.1298111038358566  0.7264819034521797  0.0439175100766332
  0.1976385691006219  0.7797050785822458  0.0421268190482089
  0.1882140898610757  0.7026171594567118  0.0503223841065249
  0.3462372639846740  0.8363350696220151  0.0770439203962673
  0.3734918180033485  0.8031851968709057  0.0569905498788474
  0.4982143761801119  0.7652652312247924  0.0460631073106682
  0.5396047527253793  0.7518043361788523  0.0228946103589345
  0.6801135197015485  0.8382689184479906  0.0169894515371767
  0.6065455339619968  0.6981408810474308  0.0199999706872048
  0.7156092084199264  0.7541248835880747  0.0638587018455616
  0.8930125564593269  0.8702907709997824  0.0902526519281266
  0.9930561272378116  0.9281101388397303  0.0554503959481668
  0.9351803368702025  0.8724034217072351  0.0657316727122438
  0.1352327213600996  0.9575368411045829  0.0383946726582422
  0.2063479700926107  0.9061020685198850  0.0406695634757563
  0.1982912908487699  0.8431100099155802  0.0227146549697538
  0.2762393289227535  0.8553190358064375  0.0458664836830579
  0.4123287213579426  0.9314507536212230  0.0217905869928230
  0.4023522216777175  0.8711831691646159  0.0319482892919616
  0.4621831954453273  0.8573172046099741  0.0440053601566769
  0.5593637392169912  0.8649255911401277  0.0287427784117958
  0.5705828551169071  0.7740991670951036  0.0484325950140042
  0.7002398065827234  0.8953594960616748  0.0486922865039264
  0.7003960863799746  0.8111435960973300  0.0397415122701400
  0.7777214813311931  0.8337478320876932  0.0481658650361100
  0.9359331072821464  0.9434410876604741  0.0609877073284362
  0.0580934152421989  0.9188687663027617  0.0492297222870124
  0.0567003510493468  0.0119642640837035  0.0764734514903359
  0.1828483221986955  0.9467744569765274  0.0272016533938250
  0.2540528588441318  0.9796246503829052  0.0316075085819802
  0.2758025287659369  0.9158511339058110  0.0350701857628370
  0.3434456002962075  0.9377337195029853  0.0473585162844279
  0.4519482755530893  0.9270771374890010  0.0434394777027001
  0.5985975296484810  0.0054205253053968  0.0492497351073189
  0.6298007297438044  0.9767030980333504  0.0332265156653313
  0.5626318967676968  0.9225468469215192  0.0139698314316078
  0.6441579574141619  0.9066180027794860  0.0679860772538655
  0.8174949835970425  0.9275900522769210  0.0588766046699284
  0.8454268572900813  0.8835466256541832  0.0596652261280261
  0.8822150980664071  0.9321408729786748  0.0345257054911650
  0.0089274319503143  0.9958919682195693  0.0523132912426826
  0.0831374593434345  0.0715962314248744  0.0621978513034324
  0.1479795850449983  0.0765159475290001  0.0792419869093331
  0.1942875371181665  0.0505240958265543  0.0845914460598182
  0.2513311907645995  0.0438902628361506  0.0593931351125690
  0.3102752274419325  0.0486361201929928  0.0482483958027698
  0.4617460137857315  0.0256679032743380  0.0705105801399382
  0.5386242974428804  0.0826323801273814  0.0770233497396460
  0.6382042149046413  0.0475017418808854  0.0784053388355896
  0.6974807709724535  0.1470629622020150  0.0529473435833039
  0.6948201684215051  0.1255492827422133  0.0790874367705573
  0.6767600118606186  0.9433824978039866  0.0404335359579477
  0.8358354499374060  0.0788137485966859  0.0757453020080011
  0.9084489617270802  0.1167279570585828  0.0799166883667563
  0.9162863086628364  0.0265603670806446  0.0957111941000497
  0.0012868315489176  0.0630550237493560  0.0613611664201331
  0.2208857428994996  0.2433283289350245  0.0187760213062833
  0.2223590705463946  0.1554073011562977  0.0574089743357575
  0.2123290219797029  0.1337214720735109  0.0867713118365115
  0.3274268622221057  0.1228652427784974  0.0726057123242518
  0.3728102911881541  0.0970450034065574  0.0631698705325381
  0.4572919689026892  0.0908120392831364  0.0741894535773981
  0.5145316586495029  0.1445563648980674  0.0512645049839249
  0.5741959364215334  0.1654304033876824  0.0628399033240493
  0.6220844475630058  0.1372058518172798  0.0601332552971373
  0.7003286033794374  0.0167484272148999  0.0466149350608269
  0.8604908569038326  0.1504233087333335  0.0582992037782095
  0.9273370230105417  0.1863438012542097  0.0709629643591050
  0.9475636691906499  0.0685403678752787  0.0558355080708725
  0.0054683218253402  0.1598605081772350  0.0542248706162874
  0.0862820735135355  0.1920082232571838  0.0576083141212365
  0.1845981714889338  0.2366326028955290  0.0692773407595349
  0.2270470550598411  0.2061239322555725  0.0756905327555541
  0.2955257612878883  0.1873046304934241  0.0862152538239631
  0.3345776313245780  0.1822269753403351  0.0498976280629980
  0.4017449623822857  0.1494806936091534  0.0320105693400151
  0.4310329559000629  0.1302216939908012  0.0782705169417295
  0.5978527085965328  0.2338483764432306  0.0760348564344008
  0.6421656953370610  0.2114744152657746  0.0726355917354006
  0.7798669315589039  0.2102878026846323  0.0810697158737471
  0.7697602126349873  0.1487535015898135  0.0618707487383214
  0.8974527902648117  0.2416361923886912  0.0810470907487226
  0.9983372590088493  0.2129647103676287  0.0714094138610220
  0.0371022490074795  0.2865471322732639  0.0815505735705204
  0.1030025212225261  0.3264385896716173  0.0332760734302642
  0.2676004753232901  0.2827459229698512  0.0636131322120147
  0.2763593600734942  0.3329290158174630  0.0907429620782353
  0.3562687478086104  0.2707975579865607  0.1052759399465369
  0.3627261259059382  0.2326839734658265  0.0716762739407975
  0.4524029087094550  0.2269418646955241  0.0805001287555319
  0.5028709598084906  0.1984589049195312  0.0804630314222455
  0.5970410635902483  0.2974915091916369  0.0829099341848113
  0.6723752698298920  0.2845729138683550  0.0640738765449145
  0.7818424719202813  0.2796982657735191  0.0253681784775882
  0.7889335954308384  0.2938302559350482  0.0636418886486172
  0.8990277282522335  0.2580377148133092  0.0550960935935646
  0.9107408303727180  0.3319501781503351  0.0806462869237413
  0.9848959626082958  0.3144959732395028  0.0833075113813746
  0.1044577465752148  0.3332189845393681  0.0635845564017654
  0.2271601192387446  0.3121255920911032  0.0685694274659634
  0.3081263782499200  0.3872582321246795  0.0642836256995862
  0.3200994682722742  0.2680143654452559  0.0794756737957126
  0.4162102120983524  0.3247811885082862  0.0734614744163412
  0.5389010399156812  0.3542636704161993  0.0624936867129587
  0.5044985004601782  0.3121127044080536  0.0947994458303163
  0.4983399965547139  0.2625207936225362  0.0473026409674820
  0.7293265341787796  0.3414856307643541  0.0546306521390333
  0.6948946775808983  0.2079921331039360  0.0482455886714488
  0.7190749457084630  0.2748852595265849  0.0472162917205583
  0.8531525890711416  0.3464331840986782  0.0739185881335448
  0.9070379790497576  0.3489565785994128  0.0507019753455013
  0.9737890204646913  0.3849112038236651  0.1026767049100886
  0.0285735605873867  0.4815100011468675  0.0805010940306138
  0.1662790017875148  0.3985529387726319  0.0744220510161932
  0.2325082189392852  0.4524786392912628  0.0634425612078757
  0.2926448637918045  0.4149815152227110  0.0916288102901416
  0.4443810219029380  0.3968286183121879  0.0716781212610257
  0.5107965820038899  0.5207099977160372  0.0470155879619955
  0.4143508311381783  0.3556950449219726  0.0436460957211384
  0.5129920703454206  0.4564450151607669  0.0673124060263336
  0.6822468063022603  0.3898106678662450  0.0743389372124773
  0.7660341856715009  0.4489358375434538  0.0968583038165967
  0.7502673121341441  0.4000592521455081  0.0740747289083319
  0.8073619095758611  0.3794547797401233  0.0664257111192395
  0.9449046539898303  0.4189071420980866  0.0838074299447263
  0.9985216095689337  0.4036305944841285  0.0754414772348039
  0.1957214500093742  0.5418734090443496  0.0811781603972216
  0.1846099184991031  0.5229495318116433  0.0345717129001879
  0.1706077157658247  0.4645703541810885  0.0645044458155550
  0.3010071999574416  0.5078946688177018  0.0740812901102824
  0.3607561317411427  0.3666054242574568  0.0810225150741850
  0.4548248342104033  0.4738023556618290  0.0717727783544759
  0.5554742511971014  0.5962873104615216  0.0456314406553270
  0.5898740839940397  0.4800355196136687  0.0708573905817768
  0.6202499597718243  0.4299380267598796  0.0773812552410888
  0.7023123731793748  0.4613526596008939  0.0801278385849162