super cell                              
   1.0138007551464026     
     9.5160698588808970  -16.4823164839565095    0.0000000000000000
     9.5160698588808970   16.4823164839565095    0.0000000000000000
     0.0000000000000000    0.0000000000000000   30.8472293999999998
     432
Direct
  0.0108865600000030  0.1037228599999978  0.0401798799999966
  0.2342156099999997  0.1242466400000026  0.0350634200000002
  0.4005439700000011  0.1247724300000002  0.0424613599999972
  0.5625386500000005  0.1257184800000033  0.0408297700000020
  0.7156481800000023  0.1156370200000012  0.0534415300000006
  0.8783991000000029  0.1390273299999976  0.0360628899999966
  0.0627953500000018  0.2931852899999967  0.0507255099999995
  0.1936497499999987  0.2541788500000024  0.0373999999999981
  0.3547169900000000  0.2780103799999978  0.0568435100000002
  0.5564734900000019  0.2838857899999994  0.0391726699999992
  0.7324681400000017  0.2884150200000022  0.0314123699999982
  0.9166073299999979  0.3112159100000014  0.0498858600000034
  0.0703022499999975  0.4754471199999983  0.0424058500000015
  0.2233681599999997  0.4590731799999972  0.0463865500000011
  0.3760124800000000  0.4436163600000000  0.0331409899999997
  0.5645002999999988  0.4627875799999970  0.0304759099999998
  0.7391495999999975  0.4597812399999981  0.0336464800000016
  0.9089987199999996  0.4617380299999994  0.0329342100000005
  0.0672856500000023  0.6394283099999996  0.0471333799999982
  0.2311534999999978  0.6415703099999988  0.0378785699999966
  0.3763575799999970  0.6270821399999988  0.0409836500000011
  0.5384716900000015  0.5975738699999980  0.0339093899999980
  0.7265882599999998  0.5846860799999973  0.0423283000000012
  0.8902737100000024  0.6093226799999982  0.0356638299999972
  0.0300444800000008  0.7855993100000020  0.0544700199999966
  0.2232517300000012  0.8052886799999968  0.0396763800000031
  0.3900055000000009  0.8186571299999983  0.0404353599999965
  0.5651381899999990  0.7919180700000013  0.0528187800000026
  0.7074853000000019  0.7470805900000030  0.0321863699999980
  0.8559828499999966  0.7417348099999970  0.0475502199999980
  0.0301080300000010  0.9362906499999966  0.0458264499999999
  0.2349557900000008  0.9672730999999999  0.0482278100000002
  0.3818124100000020  0.9560113599999980  0.0405989400000024
  0.5549315900000025  0.9752680400000031  0.0423907899999989
  0.7081384199999974  0.9337639199999970  0.0473144400000010
  0.8751146600000013  0.9320263800000035  0.0368987299999972
  0.1140533199999965  0.0785827500000025  0.1120184399999999
  0.2831902499999970  0.0595124800000022  0.1301355800000010
  0.4483650999999966  0.0618008499999974  0.1244956099999968
  0.6370031200000028  0.0660109199999965  0.1387583100000001
  0.8028482699999984  0.0503897800000033  0.1219369299999968
  0.9348933500000030  0.0232510599999998  0.1203191399999994
  0.0697693299999997  0.1977901699999975  0.1264479000000023
  0.2750754799999982  0.2120709599999984  0.1283328800000021
  0.4540132200000002  0.2182090700000003  0.1286388400000007
  0.6101633899999968  0.2431782600000005  0.1171926800000023
  0.7870655700000029  0.2348817199999971  0.1258435199999965
  0.9375564300000008  0.2304146900000035  0.1273511099999993
  0.0883886299999972  0.3860717199999968  0.1306700900000024
  0.2255990600000004  0.3549744399999994  0.1247162299999971
  0.4349265800000026  0.3805381800000021  0.1185390999999996
  0.6133306899999980  0.4053908100000001  0.1216920199999976
  0.7785328900000010  0.3933346999999969  0.1219386300000025
  0.9344174399999972  0.4041676399999972  0.1251445099999984
  0.0866510600000012  0.5383173999999968  0.1232562400000035
  0.2608583999999965  0.5709043499999993  0.1288656099999983
  0.4231200400000006  0.5624292999999980  0.1156211500000026
  0.6300573700000029  0.5807576099999991  0.1213282300000031
  0.7862970400000009  0.5407052899999982  0.1172523799999965
  0.9526043700000031  0.5848451299999979  0.1169929900000000
  0.1219088200000016  0.7588608800000003  0.1306528300000025
  0.2567527799999993  0.7299295400000005  0.1245578999999992
  0.4294055499999985  0.7453764099999987  0.1137121000000008
  0.5948762200000033  0.7189346299999997  0.1280715799999967
  0.7819610100000034  0.7276494500000013  0.1269531900000018
  0.9449111699999975  0.7360409400000023  0.1370057500000001
  0.0986541199999991  0.9133510400000020  0.1201384100000027
  0.3008651499999999  0.9038243399999999  0.1378194999999991
  0.4768363399999984  0.9252713200000002  0.1382075400000033
  0.6133058799999986  0.8787658999999977  0.1369699500000010
  0.7609334099999998  0.8632497899999976  0.1164840599999977
  0.9384406599999977  0.8788647100000020  0.1388050199999995
  0.0447775900000025  0.1074418299999991  0.2081833000000017
  0.2470738399999988  0.1139226399999984  0.2064304600000000
  0.3831728999999982  0.0800694599999972  0.2129426199999997
  0.5562063300000020  0.1100149900000034  0.2021441799999977
  0.7158483400000009  0.1235711200000011  0.2179385199999970
  0.8730089199999966  0.1077275999999969  0.2111988999999994
  0.0603212999999982  0.2666924299999991  0.2086724099999984
  0.2061897399999992  0.2514368200000021  0.1987350899999996
  0.3790681899999981  0.2715426899999969  0.2145390900000024
  0.5707993700000031  0.3036308699999992  0.1983787799999988
  0.7184792299999998  0.2827206799999971  0.2069619800000027
  0.8965061999999975  0.2709665200000018  0.2078598700000001
  0.0790499599999990  0.4625784099999990  0.2179749800000010
  0.2021634000000034  0.4169744900000012  0.2117588400000017
  0.3809533599999995  0.4296617199999986  0.2019081700000029
  0.5667782399999979  0.4534277699999976  0.2178999099999999
  0.7357419900000011  0.4625962400000034  0.2069559799999965
  0.8739163899999980  0.4214032399999965  0.2021560000000022
  0.0427952699999992  0.6202310800000035  0.2042345400000016
  0.2121655999999987  0.6282283099999972  0.2100282099999973
  0.3688210299999994  0.6005722800000015  0.1979876300000001
  0.5331827700000034  0.5856659600000000  0.1989492200000029
  0.7182080099999979  0.6021370500000032  0.2102893300000019
  0.8829886500000015  0.6003709200000031  0.2088924800000029
  0.0499897799999971  0.7876396200000002  0.2109488600000020
  0.2176263799999987  0.7870728899999975  0.2146650999999977
  0.3709768900000014  0.7831774100000004  0.2051688399999989
  0.5148320600000034  0.7568933900000019  0.2060702200000009
  0.7402837599999970  0.7968417499999987  0.2042250699999997
  0.8736955899999970  0.7857590400000021  0.2118146800000034
  0.0573961400000016  0.9661478399999979  0.2043689200000003
  0.1954732600000000  0.9287326399999998  0.2173421800000028
  0.3887955300000030  0.9343092499999983  0.2174537499999971
  0.5583703400000033  0.9324133100000012  0.2137193100000019
  0.7026810099999992  0.9460012699999965  0.2059917999999996
  0.8823955299999966  0.9650917299999975  0.2084233599999976
  0.1042047199999985  0.0486002499999998  0.2950239999999980
  0.2817106199999984  0.0643066700000006  0.2886514599999970
  0.4543455399999985  0.0588849199999970  0.2907968800000020
  0.5961323900000011  0.0441239900000028  0.3027064099999990
  0.7605593099999979  0.0534350599999982  0.3118588500000001
  0.9376836200000014  0.0513979099999986  0.2947866399999981
  0.1000397700000022  0.2087923500000031  0.2958457599999988
  0.2606628999999998  0.2157126899999966  0.2972263300000009
  0.4473666000000023  0.2234249700000035  0.2817434000000034
  0.6081419300000022  0.2231751599999967  0.2907967100000022
  0.7699742900000004  0.2382060999999993  0.3011971700000018
  0.9304200500000022  0.1994688400000015  0.2927776699999995
  0.1121139500000012  0.3758583999999985  0.2991670899999974
  0.2832600799999980  0.3734657299999995  0.2899985299999983
  0.4446088999999986  0.4038519699999981  0.2853766300000018
  0.6150375599999975  0.4010305299999999  0.2959545699999993
  0.7546268899999973  0.4086318700000007  0.2969264299999992
  0.9396014399999970  0.3633115100000026  0.2977011700000034
  0.0690510299999971  0.5343102799999997  0.2954538899999974
  0.2523782800000021  0.5579183799999967  0.2799681300000003
  0.4284968500000019  0.5614300000000014  0.2759590399999965
  0.6099425000000025  0.5610629999999972  0.2878512899999990
  0.7659750999999986  0.5742836699999998  0.3036298800000026
  0.9200911599999984  0.5497889999999970  0.2871776200000014
  0.0744508699999997  0.7017602100000033  0.2843165800000023
  0.2515066200000007  0.7158695099999974  0.2919882099999995
  0.4154246599999993  0.7098587500000022  0.2938895400000021
  0.6126872299999988  0.7215460899999968  0.2763279400000016
  0.7673725900000008  0.7333578100000011  0.2844146699999968
  0.9326665500000004  0.7143265200000002  0.2793409599999990
  0.0941138499999994  0.8952071000000004  0.2909700000000015
  0.2670851800000023  0.8911094500000019  0.2980575599999966
  0.4360095700000031  0.8758066700000029  0.2948105999999981
  0.5954482599999977  0.8848815599999966  0.2866237799999993
  0.7852501400000023  0.8992506900000024  0.2834687900000006
  0.9541696400000035  0.9071432900000005  0.2862051800000032
  0.0324765900000017  0.0948785599999979  0.3814475200000018
  0.2284891600000023  0.1148948599999997  0.3770998500000005
  0.3848870599999969  0.1020299999999992  0.3739542300000025
  0.5542948300000035  0.1192448600000020  0.3846995500000006
  0.6978860199999986  0.1131751699999981  0.3856621199999992
  0.8710606900000002  0.0822615399999975  0.3784346300000010
  0.0722579700000026  0.2701027499999995  0.3766357200000030
  0.2315796399999996  0.2609455500000024  0.3805283499999987
  0.3923317699999984  0.2506103199999998  0.3673336800000016
  0.5469391199999976  0.2669291899999990  0.3704770300000035
  0.7177162500000023  0.2910817100000003  0.3842561200000034
  0.8941493399999985  0.2651103999999975  0.3869199399999985
  0.0606639100000024  0.4274040299999982  0.3786749499999971
  0.2606196799999978  0.4403439199999966  0.3662472199999982
  0.3936821100000003  0.4160474099999973  0.3690871399999978
  0.5618425500000015  0.4490917800000034  0.3796113200000022
  0.7340833399999980  0.4544318700000005  0.3858336500000021
  0.8916069500000035  0.4143366200000003  0.3765586399999989
  0.0372621200000012  0.5788089500000027  0.3796106699999982
  0.2173253099999997  0.5884753699999976  0.3668463200000005
  0.3841866200000013  0.5990096000000023  0.3666650300000001
  0.5321105000000017  0.5758311599999999  0.3731288700000022
  0.7345905700000017  0.6115414200000018  0.3895440599999986
  0.9038928100000021  0.6255278599999983  0.3722968000000009
  0.0478644100000025  0.7907353900000018  0.3754207400000027
  0.2012972099999999  0.7610529800000023  0.3705426799999998
  0.3720818600000015  0.7639447299999986  0.3652753100000012
  0.5332632100000012  0.7751685899999998  0.3630817600000000
  0.6958460600000009  0.7516528299999976  0.3682560499999994
  0.8822770599999998  0.7704146600000001  0.3580912999999981
  0.0455485700000011  0.9528571800000023  0.3764703499999982
  0.2061836999999969  0.9426313800000017  0.3735283400000000
  0.3999771699999997  0.9504121800000007  0.3692574199999967
  0.5756673400000025  0.9511511400000003  0.3830233400000012
  0.7105190899999982  0.9290451399999995  0.3790710000000033
  0.8729819500000033  0.9124501499999980  0.3716323900000020
  0.1068395499999966  0.0418615099999968  0.4593377200000006
  0.2829240499999983  0.0411240299999989  0.4631985600000021
  0.4668401599999967  0.0461310000000026  0.4671708600000031
  0.6235483299999984  0.0337982300000021  0.4658609299999981
  0.7675345899999968  0.0129687100000027  0.4644770800000018
  0.9418775199999985  0.0262736500000003  0.4775811700000006
  0.0904069300000003  0.1956766899999991  0.4603547700000021
  0.2703985400000022  0.2164490899999976  0.4584173100000015
  0.4308551600000001  0.2182466599999984  0.4567311300000014
  0.6063200399999999  0.2411700400000001  0.4663742099999979
  0.7705963900000015  0.2148778999999976  0.4614963699999990
  0.9354973499999986  0.1998245600000033  0.4609161500000027
  0.1084030399999989  0.3682761099999965  0.4486563700000019
  0.2686012699999978  0.3644942900000032  0.4502507799999975
  0.4344668299999981  0.3666693400000014  0.4535773599999970
  0.6037905499999994  0.3812854399999992  0.4496109199999978
  0.7809206000000017  0.3840712100000019  0.4632549299999980
  0.9527539799999971  0.3700707899999998  0.4645421600000006
  0.1146067700000017  0.5341502300000016  0.4552508299999971
  0.2643736899999993  0.5304576799999978  0.4551950099999971
  0.4192658799999975  0.5048319100000001  0.4510995099999988
  0.5988102800000021  0.5430938699999999  0.4629162800000017
  0.7672785600000012  0.5377719999999968  0.4761290499999973
  0.9128910599999998  0.5301384999999996  0.4522435200000032
  0.0787235800000019  0.6876407000000029  0.4546319800000020
  0.2737871599999977  0.6884518600000007  0.4573186200000023
  0.4251534599999971  0.6707546399999984  0.4568266300000019
  0.5988523600000022  0.7252464700000019  0.4605222200000014
  0.7548990900000021  0.7085666999999987  0.4675038900000033
  0.9332132099999981  0.6975703199999970  0.4567477900000014
  0.1170125000000013  0.8792337200000020  0.4572673099999989
  0.2852637200000032  0.8799397700000000  0.4411440800000008
  0.4344949600000021  0.8550073600000019  0.4511404300000024
  0.5926293099999995  0.8674318400000018  0.4519469399999991
  0.7795036400000015  0.8630142399999983  0.4655821200000005
  0.9222845000000035  0.8577521099999998  0.4503003100000029
  0.0692640199999985  0.0975564599999998  0.5462272199999987
  0.2221179599999985  0.0956051200000019  0.5342257399999966
  0.4047730899999991  0.1161229499999976  0.5374276900000012
  0.5622260000000026  0.0892528899999974  0.5405804399999994
  0.7408181200000001  0.0924880500000000  0.5371066499999984
  0.8897152899999980  0.0765525500000024  0.5550170500000036
  0.0586223299999986  0.2803628200000006  0.5386983000000001
  0.2210998799999970  0.2941448099999988  0.5365664799999976
  0.3959258699999992  0.2721349300000000  0.5439833699999994
  0.5599256499999967  0.2887418299999993  0.5435487800000018
  0.7062952699999983  0.2561133199999972  0.5418168500000036
  0.8780015399999996  0.2478915000000015  0.5515629000000004
  0.0704457300000030  0.4541652799999980  0.5366730399999966
  0.2175272899999996  0.4287128799999991  0.5356506299999992
  0.4098499600000025  0.4246504199999990  0.5309310900000028
  0.5981652600000018  0.4559585599999991  0.5509099100000014
  0.7331468300000026  0.4133290400000007  0.5403503699999987
  0.8854703100000023  0.4079326700000010  0.5428112499999997
  0.0372739999999965  0.6010014299999966  0.5371734300000028
  0.2467201799999970  0.6012978300000000  0.5386389000000023
  0.4246498400000007  0.5860229999999973  0.5396618899999979
  0.5830627599999971  0.6162217700000028  0.5551651299999989
  0.7251093400000030  0.6164349900000019  0.5545042400000000
  0.8717335400000010  0.6023714399999989  0.5547981100000001
  0.0364693699999989  0.7540143700000002  0.5413790100000000
  0.2095097999999993  0.7616722599999974  0.5317106500000008
  0.4004587200000032  0.7948530999999974  0.5332706000000016
  0.5377430099999998  0.7434435999999991  0.5463349999999991
  0.7085996499999965  0.7652759099999997  0.5423317899999986
  0.8807013400000017  0.7683690699999985  0.5458088500000002
  0.0388536399999992  0.8974901500000030  0.5303467499999996
  0.2088338300000032  0.9140874100000005  0.5371538699999974
  0.3712838300000030  0.9296652900000026  0.5453555699999981
  0.5585670700000023  0.9247572700000006  0.5366823800000020
  0.7027528099999998  0.9232005400000034  0.5557218900000009
  0.8747503600000002  0.9184747899999977  0.5524413500000023
  0.1439729900000017  0.0436390699999976  0.6186851499999975
  0.2996556599999991  0.0312572899999992  0.6155185000000003
  0.4463769799999966  0.0414550799999986  0.6115809599999977
  0.6018556599999982  0.0412947499999987  0.6297865100000024
  0.7914607700000005  0.0576175699999979  0.6289083099999999
  0.9633926799999983  0.0393009200000023  0.6373702200000011
  0.1230609400000020  0.2205892699999978  0.6235131099999975
  0.2826898400000033  0.2309229500000001  0.6159231700000021
  0.4673231599999994  0.2342824400000012  0.6216673799999981
  0.6031509999999969  0.1954232399999967  0.6204005000000024
  0.7541793999999982  0.1899120300000021  0.6217907699999969
  0.9510208700000007  0.2107028900000003  0.6128690099999972
  0.1136418700000021  0.3820807800000026  0.6219206000000028
  0.2994093699999993  0.4144521300000008  0.6282049200000017
  0.4541382399999989  0.3921482900000015  0.6215814099999974
  0.6350153899999995  0.3817246300000008  0.6178505800000025
  0.7837918700000017  0.3878628100000014  0.6211811299999965
  0.9408619299999970  0.3743787100000020  0.6368274700000001
  0.1234947399999982  0.5510181900000006  0.6104211600000014
  0.2871499399999990  0.5790140300000033  0.6339077599999996
  0.4427725899999970  0.5655722899999986  0.6296454200000028
  0.5956965100000033  0.5429451199999988  0.6337729299999992
  0.7473687100000035  0.5577931500000020  0.6350986799999987
  0.9317580900000024  0.5457405300000033  0.6300692499999982
  0.1080670500000025  0.7047742399999990  0.6192158799999987
  0.2955357499999991  0.7223347400000009  0.6098614200000014
  0.4465869499999968  0.7319215600000035  0.6353152599999987
  0.6153868199999977  0.7423493800000003  0.6349085599999995
  0.7668996199999967  0.7205777100000006  0.6253630400000034
  0.9517234699999975  0.7032400399999972  0.6293719800000019
  0.1376419899999988  0.8836266300000020  0.6264933900000003
  0.2683817599999969  0.8486413199999987  0.6278921299999993
  0.4412710000000004  0.8824533700000003  0.6285564000000008
  0.6145602699999984  0.8876478500000005  0.6405157299999971
  0.7726545599999994  0.8887177300000033  0.6319717299999965
  0.9491129199999975  0.8682589100000015  0.6301677200000029
  0.1044221399999969  0.1325380700000025  0.7147877000000022
  0.2473169299999967  0.1169233600000013  0.7011066999999969
  0.4053352700000019  0.1152161500000020  0.6963176499999975
  0.5639714900000001  0.1160407300000017  0.7036984599999982
  0.7295626499999983  0.1123968699999978  0.7085398500000011
  0.9392166599999996  0.1330304000000027  0.7070966100000007
  0.0849340299999994  0.2900441000000029  0.7072315599999968
  0.2599148299999996  0.3068670899999972  0.7051624500000031
  0.4233763300000035  0.2919805699999998  0.7080405499999998
  0.5811177100000009  0.2701837299999994  0.6993580099999974
  0.7427794600000013  0.2800057199999983  0.7104880400000013
  0.8981571599999967  0.2762456000000029  0.7042320300000000
  0.0635088900000014  0.4426175700000030  0.7045603600000021
  0.2308357900000004  0.4515944700000034  0.7181234600000010
  0.4154728899999967  0.4608277000000029  0.7099935600000009
  0.5776412100000030  0.4469645100000008  0.7197453100000004
  0.7393536399999974  0.4388919200000032  0.7145203199999983
  0.9213005000000010  0.4637504299999975  0.7099460199999967
  0.0641886000000014  0.6392584999999968  0.7043622799999980
  0.2016074100000012  0.6175651900000005  0.7035646400000033
  0.3899243899999973  0.6167128399999982  0.7207459299999996
  0.5676559999999995  0.6381997800000008  0.7165073000000035
  0.7221965800000021  0.6276810000000026  0.7134233800000018
  0.8785519799999975  0.6123615799999982  0.7054357499999995
  0.0497195599999998  0.7745708799999989  0.7060213000000033
  0.2344484699999967  0.7957541700000021  0.7177438800000004
  0.3737708700000013  0.7932063299999967  0.7061738700000006
  0.5408906600000023  0.7868147900000011  0.7194908700000013
  0.7177103200000019  0.7897322299999985  0.7126744600000023
  0.8948809299999994  0.7804042899999999  0.7140517599999967
  0.0735747499999988  0.9723274199999992  0.6988689200000024
  0.2048430800000034  0.9424312100000023  0.7161867100000023
  0.3933162900000013  0.9615844799999991  0.7042835100000033
  0.5627111299999967  0.9633344499999978  0.7094197300000005
  0.7501849100000015  0.9789316900000031  0.7168497999999985
  0.8844756900000021  0.9394857200000004  0.7082233699999989
  0.1280567900000023  0.0668801899999991  0.7855539899999968
  0.2798547399999975  0.0618276499999979  0.7930885700000019
  0.4356003500000014  0.0601516500000017  0.7829699300000001
  0.6177129399999970  0.0709903300000008  0.7857814099999985
  0.7906100800000004  0.0605350100000024  0.8002939900000001
  0.9482988399999996  0.0463089799999992  0.7920278200000013
  0.1241837500000003  0.2285243199999982  0.7820015400000031
  0.2974617400000028  0.2201667499999971  0.7742679899999985
  0.4534419100000022  0.2313685299999975  0.7847702800000036
  0.6097077499999983  0.2434264299999995  0.7899025600000016
  0.7903044399999999  0.2191533199999967  0.7935297900000009
  0.9561055699999983  0.2166932800000012  0.7820907899999980
  0.1112242700000010  0.3814814200000001  0.7931838800000008
  0.3029958400000012  0.4164690400000026  0.7901260399999970
  0.4410360700000027  0.4002461700000026  0.7874814799999967
  0.6241890299999966  0.4125624099999996  0.7991042900000025
  0.7710373500000003  0.3852774100000005  0.7930201400000030
  0.9434675999999982  0.3820549599999978  0.7882772600000010
  0.0928271200000026  0.5453557299999972  0.7839153700000026
  0.2568437600000024  0.5526831800000025  0.7877776099999991
  0.4510703500000020  0.5675364000000016  0.7939128200000027
  0.6157775799999996  0.5675894099999965  0.7946885400000028
  0.7866060200000007  0.5738719399999965  0.7902551999999972
  0.9375767800000006  0.5509556900000021  0.7794869800000015
  0.1261622900000035  0.7439988200000016  0.7908388299999984
  0.2659431399999974  0.7182225199999976  0.7906235199999969
  0.4382661300000024  0.7428963999999993  0.7923407899999972
  0.5897843099999989  0.7156455599999987  0.8038631100000018
  0.7935008999999980  0.7552057199999993  0.7894318499999997
  0.9551452099999977  0.7224311599999993  0.7871233999999987
  0.0898419999999973  0.8798676199999989  0.7912286800000032
  0.2529320100000021  0.9011497199999994  0.8051000099999968
  0.4200183800000019  0.9082830700000031  0.7925126499999990
  0.5986595899999969  0.9155716900000002  0.7898833799999991
  0.7589283800000004  0.8833148200000025  0.7968617200000025
  0.9531694599999980  0.8974305099999995  0.7846537599999976
  0.0813259399999993  0.1409436100000008  0.8639102200000011
  0.2347294300000016  0.1339239300000017  0.8692154499999987
  0.4054472400000009  0.1225836799999982  0.8779779700000034
  0.5611537500000026  0.1083710500000024  0.8763412500000030
  0.7233492000000012  0.0895014199999977  0.8684529200000028
  0.9065390800000017  0.0999946700000010  0.8814716199999992
  0.0466764399999988  0.2991994500000033  0.8802782500000035
  0.2382349000000019  0.2995737099999971  0.8590795499999970
  0.3856936099999970  0.2739284199999972  0.8609592299999989
  0.5598306099999988  0.2977445499999973  0.8726208000000000
  0.7203605999999994  0.2541219299999966  0.8712467000000004
  0.8859966500000027  0.2870703199999980  0.8856441100000012
  0.0590322099999980  0.4558913099999984  0.8756087900000011
  0.2096079700000004  0.4481132299999970  0.8821273699999992
  0.3709215599999993  0.4465140200000022  0.8776277799999974
  0.6007504800000021  0.4628192500000026  0.8759835800000033
  0.7602118900000008  0.4632187899999991  0.8788384699999980
  0.8998834100000010  0.4550038200000017  0.8641016199999996
  0.0726079800000008  0.6324308599999995  0.8601032099999983
  0.2402395599999991  0.6357078300000012  0.8793997800000000
  0.4052363999999997  0.6256627100000003  0.8687439500000025
  0.5351128399999965  0.5915912700000021  0.8846486899999988
  0.7494176699999997  0.6295402800000005  0.8702695200000008
  0.9222169499999993  0.6423668300000003  0.8734154400000023
  0.0998481199999972  0.8041449299999996  0.8810581199999987
  0.2447174899999993  0.7909200900000002  0.8721467900000022
  0.4180616299999969  0.8041779500000032  0.8707095600000017
  0.5575570199999973  0.7691229799999988  0.8851196500000000
  0.7034090000000006  0.7398931700000020  0.8759141999999969
  0.9027456600000008  0.7894150999999994  0.8795159299999966
  0.0649347100000028  0.9832665899999995  0.8800716699999995
  0.2170357700000025  0.9761121200000034  0.8837359999999990
  0.3918123199999997  0.9537976399999977  0.8780956499999988
  0.5685113799999968  0.9493505000000013  0.8822551100000027
  0.7111310100000026  0.9234616000000031  0.8738002699999967
  0.8797912799999992  0.9239101499999975  0.8687553800000032
  0.0968006900000020  0.0756606599999969  0.9641843300000019
  0.2998784799999967  0.0848003700000035  0.9567388099999974
  0.4668763800000022  0.0732170499999967  0.9648347500000014
  0.6326756200000005  0.0889148999999989  0.9562968600000019
  0.7877268399999977  0.0671926400000018  0.9507393299999976
  0.9309773199999967  0.0552054699999971  0.9567905999999979
  0.1191249199999973  0.2494048499999977  0.9515469800000034
  0.2653791400000003  0.2408698200000003  0.9450756399999989
  0.4184695800000000  0.2681218999999970  0.9745142599999994
  0.6254459900000029  0.2403425799999965  0.9559382200000002
  0.7854894500000000  0.2236374599999991  0.9607091100000034
  0.9461243800000005  0.2234116400000019  0.9600736800000007
  0.1162917899999982  0.4141584899999984  0.9685136399999976
  0.2599871199999981  0.3946101399999975  0.9591685500000011
  0.4760695599999991  0.4301419600000003  0.9360222600000014
  0.6097020899999990  0.3854164700000027  0.9591320400000001
  0.7869826399999980  0.3769348599999987  0.9466004399999974
  0.9636844600000032  0.3989866399999968  0.9602032499999993
  0.1074097799999976  0.5599039199999964  0.9455362200000010
  0.2773437099999967  0.5715799700000019  0.9568387400000020
  0.4268235999999987  0.5453889300000014  0.9582588299999983
  0.6468293200000019  0.5790384599999996  0.9488125600000004
  0.8025000199999965  0.5691955400000026  0.9553062000000025
  0.9691420899999983  0.5755597300000019  0.9551267100000018
  0.1130234800000025  0.7320149999999970  0.9613683999999978
  0.2721110399999986  0.7314035599999968  0.9612964299999973
  0.4541152500000010  0.7574452899999997  0.9596355799999969
  0.5956230099999971  0.7079095799999990  0.9527614300000025
  0.8033954499999965  0.7262938599999984  0.9596190099999973
  0.9644753700000024  0.7289516199999966  0.9664455799999985
  0.1215224099999972  0.9199908599999986  0.9737253500000023
  0.2640687299999982  0.8963639700000030  0.9598826699999989
  0.4782566499999987  0.9237632800000029  0.9551095899999993
  0.6271416499999987  0.8931118900000001  0.9629801700000016
  0.7707813800000025  0.8698019300000013  0.9452648099999976
  0.9464720599999978  0.8993258100000006  0.9574554900000010

  0.25279310E-03 -0.10965435E-03 -0.45551361E-04
 -0.36949924E-03 -0.89454737E-04 -0.61572136E-04
 -0.62607719E-05  0.17794195E-03 -0.61154186E-05
  0.19131837E-03  0.12773101E-03  0.21221179E-03
  0.87652845E-04 -0.31067611E-04 -0.20238710E-03
 -0.21158818E-03 -0.74816605E-04  0.21166595E-03
 -0.32222289E-04  0.15595833E-04 -0.26785831E-03
 -0.20912908E-04  0.11565160E-03  0.98074488E-04
  0.29365994E-03 -0.17001941E-03 -0.71237929E-03
  0.70505605E-04  0.17736705E-03 -0.72193167E-04
  0.90110748E-04 -0.12316347E-04  0.36134061E-03
 -0.20235053E-03  0.45547657E-04 -0.27344735E-03
  0.84656257E-04 -0.11126934E-03 -0.20772236E-03
  0.65400332E-04 -0.75503066E-04  0.11792238E-03
 -0.19692192E-03 -0.12369032E-03  0.20938502E-03
 -0.39868166E-03 -0.42135504E-04  0.53596936E-04
 -0.77634137E-03 -0.94116111E-03 -0.19652825E-03
 -0.93583925E-04  0.15614040E-03  0.10341479E-03
  0.78968459E-04 -0.73755736E-04 -0.14634589E-03
 -0.23450071E-03  0.22446534E-04  0.20503297E-03
  0.10739664E-03 -0.15453355E-03 -0.16563606E-03
  0.15840111E-03  0.13675198E-03  0.17765281E-03
  0.23310086E-03  0.10049254E-02 -0.47658332E-04
  0.23413015E-03 -0.19321520E-03  0.15355814E-03
  0.64117775E-04 -0.31529262E-03 -0.18356906E-03
 -0.19276671E-03  0.93488218E-04  0.24849912E-03
 -0.18986610E-03 -0.36274726E-03 -0.17026728E-05
 -0.37357312E-03  0.27239975E-05 -0.36578112E-03
 -0.27509114E-04  0.20581459E-03  0.97251908E-04
  0.61597016E-03  0.39537158E-04 -0.10488655E-04
  0.83184014E-04  0.30149671E-03 -0.14616422E-03
 -0.12524071E-03  0.84559792E-04  0.57175423E-04
  0.27689483E-03  0.18437073E-03  0.17006984E-04
 -0.11899815E-03 -0.36095108E-03  0.12354897E-03
  0.46397555E-03  0.92405792E-04 -0.13063963E-03
 -0.25567865E-03  0.75978029E-04 -0.47057088E-04
 -0.92787917E-04 -0.22356547E-03  0.12858338E-04
 -0.87907736E-04 -0.13072982E-03 -0.19047477E-03
  0.94546858E-04 -0.89490627E-04 -0.11498947E-03
  0.14620633E-04 -0.13983716E-03 -0.36480354E-03
 -0.13414679E-03  0.27274081E-03  0.37890262E-04
  0.79433180E-04  0.48046731E-04  0.76761293E-04
  0.62474950E-04 -0.12802768E-04 -0.12093346E-03
 -0.10571605E-03  0.73915683E-04  0.23698869E-03
 -0.18319147E-03  0.45660963E-03  0.23885343E-04
  0.12902770E-03 -0.56268500E-03  0.12331829E-03
 -0.15792422E-03  0.13059769E-03  0.20753788E-04
 -0.15162428E-03 -0.13034012E-03 -0.22317212E-04
  0.89416721E-04  0.30187629E-04  0.55183288E-04
  0.31950945E-03 -0.10520509E-03 -0.19596526E-03
  0.48524965E-03  0.71304175E-04  0.46371401E-03
  0.74995578E-04  0.18089645E-03 -0.13170830E-03
 -0.24873626E-03 -0.87362517E-04 -0.19386202E-03
 -0.29350384E-04 -0.11602526E-03 -0.66735388E-04
  0.55623537E-03  0.20497738E-03  0.41484392E-03
 -0.20902370E-03  0.83146491E-05 -0.19996454E-03
 -0.52198634E-04 -0.21213537E-03  0.30381188E-05
 -0.27862830E-03 -0.65249461E-04 -0.54600524E-04
  0.21963087E-03  0.42936604E-03  0.33363439E-03
 -0.23728519E-04 -0.21544394E-03  0.20806609E-03
 -0.29591709E-04  0.59674458E-04 -0.10918759E-03
  0.25633369E-05 -0.10571143E-03 -0.62603828E-04
 -0.66734005E-04  0.19283596E-05  0.25290395E-03
 -0.13979416E-03 -0.16940137E-03  0.31845784E-04
 -0.24930743E-03 -0.13906093E-03  0.82709736E-04
 -0.34571630E-03 -0.22022934E-03 -0.60439277E-04
  0.31244173E-03 -0.37294527E-03  0.33600555E-03
 -0.10457946E-03  0.16101919E-03 -0.22028209E-03