super cell
-10082.77
   9.516069858880897 -16.482316483956510   0.000000000000000
   9.516069858880897  16.482316483956510   0.000000000000000
   0.000000000000000   0.000000000000000  30.847229400000000
  432
 Direct
