super cell
-10082.77
   9.516069858880897 -16.482316483956510   0.000000000000000
   9.516069858880897  16.482316483956510   0.000000000000000
   0.000000000000000   0.000000000000000  30.847229400000000
  432
 Direct
0.01088656 0.10372286 0.04017988
0.23421561 0.12424664 0.03506342
0.40054397 0.12477243 0.04246136
0.56253865 0.12571848 0.04082977
0.71564818 0.11563702 0.05344153
0.87839910 0.13902733 0.03606289
0.06279535 0.29318529 0.05072551
0.19364975 0.25417885 0.03740000
0.35471699 0.27801038 0.05684351
0.55647349 0.28388579 0.03917267
0.73246814 0.28841502 0.03141237
0.91660733 0.31121591 0.04988586
0.07030225 0.47544712 0.04240585
0.22336816 0.45907318 0.04638655
0.37601248 0.44361636 0.03314099
0.56450030 0.46278758 0.03047591
0.73914960 0.45978124 0.03364648
0.90899872 0.46173803 0.03293421
0.06728565 0.63942831 0.04713338
0.23115350 0.64157031 0.03787857
0.37635758 0.62708214 0.04098365
0.53847169 0.59757387 0.03390939
0.72658826 0.58468608 0.04232830
0.89027371 0.60932268 0.03566383
0.03004448 0.78559931 0.05447002
0.22325173 0.80528868 0.03967638
0.39000550 0.81865713 0.04043536
0.56513819 0.79191807 0.05281878
0.70748530 0.74708059 0.03218637
0.85598285 0.74173481 0.04755022
0.03010803 0.93629065 0.04582645
0.23495579 0.96727310 0.04822781
0.38181241 0.95601136 0.04059894
0.55493159 0.97526804 0.04239079
0.70813842 0.93376392 0.04731444
0.87511466 0.93202638 0.03689873
0.11405332 0.07858275 0.11201844
0.28319025 0.05951248 0.13013558
0.44836510 0.06180085 0.12449561
0.63700312 0.06601092 0.13875831
0.80284827 0.05038978 0.12193693
0.93489335 0.02325106 0.12031914
0.06976933 0.19779017 0.12644790
0.27507548 0.21207096 0.12833288
0.45401322 0.21820907 0.12863884
0.61016339 0.24317826 0.11719268
0.78706557 0.23488172 0.12584352
0.93755643 0.23041469 0.12735111
0.08838863 0.38607172 0.13067009
0.22559906 0.35497444 0.12471623
0.43492658 0.38053818 0.11853910
0.61333069 0.40539081 0.12169202
0.77853289 0.39333470 0.12193863
0.93441744 0.40416764 0.12514451
0.08665106 0.53831740 0.12325624
0.26085840 0.57090435 0.12886561
0.42312004 0.56242930 0.11562115
0.63005737 0.58075761 0.12132823
0.78629704 0.54070529 0.11725238
0.95260437 0.58484513 0.11699299
0.12190882 0.75886088 0.13065283
0.25675278 0.72992954 0.12455790
0.42940555 0.74537641 0.11371210
0.59487622 0.71893463 0.12807158
0.78196101 0.72764945 0.12695319
0.94491117 0.73604094 0.13700575
0.09865412 0.91335104 0.12013841
0.30086515 0.90382434 0.13781950
0.47683634 0.92527132 0.13820754
0.61330588 0.87876590 0.13696995
0.76093341 0.86324979 0.11648406
0.93844066 0.87886471 0.13880502
0.04477759 0.10744183 0.20818330
0.24707384 0.11392264 0.20643046
0.38317290 0.08006946 0.21294262
0.55620633 0.11001499 0.20214418
0.71584834 0.12357112 0.21793852
0.87300892 0.10772760 0.21119890
0.06032130 0.26669243 0.20867241
0.20618974 0.25143682 0.19873509
0.37906819 0.27154269 0.21453909
0.57079937 0.30363087 0.19837878
0.71847923 0.28272068 0.20696198
0.89650620 0.27096652 0.20785987
0.07904996 0.46257841 0.21797498
0.20216340 0.41697449 0.21175884
0.38095336 0.42966172 0.20190817
0.56677824 0.45342777 0.21789991
0.73574199 0.46259624 0.20695598
0.87391639 0.42140324 0.20215600
0.04279527 0.62023108 0.20423454
0.21216560 0.62822831 0.21002821
0.36882103 0.60057228 0.19798763
0.53318277 0.58566596 0.19894922
0.71820801 0.60213705 0.21028933
0.88298865 0.60037092 0.20889248
0.04998978 0.78763962 0.21094886
0.21762638 0.78707289 0.21466510
0.37097689 0.78317741 0.20516884
0.51483206 0.75689339 0.20607022
0.74028376 0.79684175 0.20422507
0.87369559 0.78575904 0.21181468
0.05739614 0.96614784 0.20436892
0.19547326 0.92873264 0.21734218
0.38879553 0.93430925 0.21745375
0.55837034 0.93241331 0.21371931
0.70268101 0.94600127 0.20599180
0.88239553 0.96509173 0.20842336
0.10420472 0.04860025 0.29502400
0.28171062 0.06430667 0.28865146
0.45434554 0.05888492 0.29079688
0.59613239 0.04412399 0.30270641
0.76055931 0.05343506 0.31185885
0.93768362 0.05139791 0.29478664
0.10003977 0.20879235 0.29584576
0.26066290 0.21571269 0.29722633
0.44736660 0.22342497 0.28174340
0.60814193 0.22317516 0.29079671
0.76997429 0.23820610 0.30119717
0.93042005 0.19946884 0.29277767
0.11211395 0.37585840 0.29916709
0.28326008 0.37346573 0.28999853
0.44460890 0.40385197 0.28537663
0.61503756 0.40103053 0.29595457
0.75462689 0.40863187 0.29692643
0.93960144 0.36331151 0.29770117
0.06905103 0.53431028 0.29545389
0.25237828 0.55791838 0.27996813
0.42849685 0.56143000 0.27595904
0.60994250 0.56106300 0.28785129
0.76597510 0.57428367 0.30362988
0.92009116 0.54978900 0.28717762
0.07445087 0.70176021 0.28431658
0.25150662 0.71586951 0.29198821
0.41542466 0.70985875 0.29388954
0.61268723 0.72154609 0.27632794
0.76737259 0.73335781 0.28441467
0.93266655 0.71432652 0.27934096
0.09411385 0.89520710 0.29097000
0.26708518 0.89110945 0.29805756
0.43600957 0.87580667 0.29481060
0.59544826 0.88488156 0.28662378
0.78525014 0.89925069 0.28346879
0.95416964 0.90714329 0.28620518
0.03247659 0.09487856 0.38144752
0.22848916 0.11489486 0.37709985
0.38488706 0.10203000 0.37395423
0.55429483 0.11924486 0.38469955
0.69788602 0.11317517 0.38566212
0.87106069 0.08226154 0.37843463
0.07225797 0.27010275 0.37663572
0.23157964 0.26094555 0.38052835
0.39233177 0.25061032 0.36733368
0.54693912 0.26692919 0.37047703
0.71771625 0.29108171 0.38425612
0.89414934 0.26511040 0.38691994
0.06066391 0.42740403 0.37867495
0.26061968 0.44034392 0.36624722
0.39368211 0.41604741 0.36908714
0.56184255 0.44909178 0.37961132
0.73408334 0.45443187 0.38583365
0.89160695 0.41433662 0.37655864
0.03726212 0.57880895 0.37961067
0.21732531 0.58847537 0.36684632
0.38418662 0.59900960 0.36666503
0.53211050 0.57583116 0.37312887
0.73459057 0.61154142 0.38954406
0.90389281 0.62552786 0.37229680
0.04786441 0.79073539 0.37542074
0.20129721 0.76105298 0.37054268
0.37208186 0.76394473 0.36527531
0.53326321 0.77516859 0.36308176
0.69584606 0.75165283 0.36825605
0.88227706 0.77041466 0.35809130
0.04554857 0.95285718 0.37647035
0.20618370 0.94263138 0.37352834
0.39997717 0.95041218 0.36925742
0.57566734 0.95115114 0.38302334
0.71051909 0.92904514 0.37907100
0.87298195 0.91245015 0.37163239
0.10683955 0.04186151 0.45933772
0.28292405 0.04112403 0.46319856
0.46684016 0.04613100 0.46717086
0.62354833 0.03379823 0.46586093
0.76753459 0.01296871 0.46447708
0.94187752 0.02627365 0.47758117
0.09040693 0.19567669 0.46035477
0.27039854 0.21644909 0.45841731
0.43085516 0.21824666 0.45673113
0.60632004 0.24117004 0.46637421
0.77059639 0.21487790 0.46149637
0.93549735 0.19982456 0.46091615
0.10840304 0.36827611 0.44865637
0.26860127 0.36449429 0.45025078
0.43446683 0.36666934 0.45357736
0.60379055 0.38128544 0.44961092
0.78092060 0.38407121 0.46325493
0.95275398 0.37007079 0.46454216
0.11460677 0.53415023 0.45525083
0.26437369 0.53045768 0.45519501
0.41926588 0.50483191 0.45109951
0.59881028 0.54309387 0.46291628
0.76727856 0.53777200 0.47612905
0.91289106 0.53013850 0.45224352
0.07872358 0.68764070 0.45463198
0.27378716 0.68845186 0.45731862
0.42515346 0.67075464 0.45682663
0.59885236 0.72524647 0.46052222
0.75489909 0.70856670 0.46750389
0.93321321 0.69757032 0.45674779
0.11701250 0.87923372 0.45726731
0.28526372 0.87993977 0.44114408
0.43449496 0.85500736 0.45114043
0.59262931 0.86743184 0.45194694
0.77950364 0.86301424 0.46558212
0.92228450 0.85775211 0.45030031
0.06926402 0.09755646 0.54622722
0.22211796 0.09560512 0.53422574
0.40477309 0.11612295 0.53742769
0.56222600 0.08925289 0.54058044
0.74081812 0.09248805 0.53710665
0.88971529 0.07655255 0.55501705
0.05862233 0.28036282 0.53869830
0.22109988 0.29414481 0.53656648
0.39592587 0.27213493 0.54398337
0.55992565 0.28874183 0.54354878
0.70629527 0.25611332 0.54181685
0.87800154 0.24789150 0.55156290
0.07044573 0.45416528 0.53667304
0.21752729 0.42871288 0.53565063
0.40984996 0.42465042 0.53093109
0.59816526 0.45595856 0.55090991
0.73314683 0.41332904 0.54035037
0.88547031 0.40793267 0.54281125
0.03727400 0.60100143 0.53717343
0.24672018 0.60129783 0.53863890
0.42464984 0.58602300 0.53966189
0.58306276 0.61622177 0.55516513
0.72510934 0.61643499 0.55450424
0.87173354 0.60237144 0.55479811
0.03646937 0.75401437 0.54137901
0.20950980 0.76167226 0.53171065
0.40045872 0.79485310 0.53327060
0.53774301 0.74344360 0.54633500
0.70859965 0.76527591 0.54233179
0.88070134 0.76836907 0.54580885
0.03885364 0.89749015 0.53034675
0.20883383 0.91408741 0.53715387
0.37128383 0.92966529 0.54535557
0.55856707 0.92475727 0.53668238
0.70275281 0.92320054 0.55572189
0.87475036 0.91847479 0.55244135
0.14397299 0.04363907 0.61868515
0.29965566 0.03125729 0.61551850
0.44637698 0.04145508 0.61158096
0.60185566 0.04129475 0.62978651
0.79146077 0.05761757 0.62890831
0.96339268 0.03930092 0.63737022
0.12306094 0.22058927 0.62351311
0.28268984 0.23092295 0.61592317
0.46732316 0.23428244 0.62166738
0.60315100 0.19542324 0.62040050
0.75417940 0.18991203 0.62179077
0.95102087 0.21070289 0.61286901
0.11364187 0.38208078 0.62192060
0.29940937 0.41445213 0.62820492
0.45413824 0.39214829 0.62158141
0.63501539 0.38172463 0.61785058
0.78379187 0.38786281 0.62118113
0.94086193 0.37437871 0.63682747
0.12349474 0.55101819 0.61042116
0.28714994 0.57901403 0.63390776
0.44277259 0.56557229 0.62964542
0.59569651 0.54294512 0.63377293
0.74736871 0.55779315 0.63509868
0.93175809 0.54574053 0.63006925
0.10806705 0.70477424 0.61921588
0.29553575 0.72233474 0.60986142
0.44658695 0.73192156 0.63531526
0.61538682 0.74234938 0.63490856
0.76689962 0.72057771 0.62536304
0.95172347 0.70324004 0.62937198
0.13764199 0.88362663 0.62649339
0.26838176 0.84864132 0.62789213
0.44127100 0.88245337 0.62855640
0.61456027 0.88764785 0.64051573
0.77265456 0.88871773 0.63197173
0.94911292 0.86825891 0.63016772
0.10442214 0.13253807 0.71478770
0.24731693 0.11692336 0.70110670
0.40533527 0.11521615 0.69631765
0.56397149 0.11604073 0.70369846
0.72956265 0.11239687 0.70853985
0.93921666 0.13303040 0.70709661
0.08493403 0.29004410 0.70723156
0.25991483 0.30686709 0.70516245
0.42337633 0.29198057 0.70804055
0.58111771 0.27018373 0.69935801
0.74277946 0.28000572 0.71048804
0.89815716 0.27624560 0.70423203
0.06350889 0.44261757 0.70456036
0.23083579 0.45159447 0.71812346
0.41547289 0.46082770 0.70999356
0.57764121 0.44696451 0.71974531
0.73935364 0.43889192 0.71452032
0.92130050 0.46375043 0.70994602
0.06418860 0.63925850 0.70436228
0.20160741 0.61756519 0.70356464
0.38992439 0.61671284 0.72074593
0.56765600 0.63819978 0.71650730
0.72219658 0.62768100 0.71342338
0.87855198 0.61236158 0.70543575
0.04971956 0.77457088 0.70602130
0.23444847 0.79575417 0.71774388
0.37377087 0.79320633 0.70617387
0.54089066 0.78681479 0.71949087
0.71771032 0.78973223 0.71267446
0.89488093 0.78040429 0.71405176
0.07357475 0.97232742 0.69886892
0.20484308 0.94243121 0.71618671
0.39331629 0.96158448 0.70428351
0.56271113 0.96333445 0.70941973
0.75018491 0.97893169 0.71684980
0.88447569 0.93948572 0.70822337
0.12805679 0.06688019 0.78555399
0.27985474 0.06182765 0.79308857
0.43560035 0.06015165 0.78296993
0.61771294 0.07099033 0.78578141
0.79061008 0.06053501 0.80029399
0.94829884 0.04630898 0.79202782
0.12418375 0.22852432 0.78200154
0.29746174 0.22016675 0.77426799
0.45344191 0.23136853 0.78477028
0.60970775 0.24342643 0.78990256
0.79030444 0.21915332 0.79352979
0.95610557 0.21669328 0.78209079
0.11122427 0.38148142 0.79318388
0.30299584 0.41646904 0.79012604
0.44103607 0.40024617 0.78748148
0.62418903 0.41256241 0.79910429
0.77103735 0.38527741 0.79302014
0.94346760 0.38205496 0.78827726
0.09282712 0.54535573 0.78391537
0.25684376 0.55268318 0.78777761
0.45107035 0.56753640 0.79391282
0.61577758 0.56758941 0.79468854
0.78660602 0.57387194 0.79025520
0.93757678 0.55095569 0.77948698
0.12616229 0.74399882 0.79083883
0.26594314 0.71822252 0.79062352
0.43826613 0.74289640 0.79234079
0.58978431 0.71564556 0.80386311
0.79350090 0.75520572 0.78943185
0.95514521 0.72243116 0.78712340
0.08984200 0.87986762 0.79122868
0.25293201 0.90114972 0.80510001
0.42001838 0.90828307 0.79251265
0.59865959 0.91557169 0.78988338
0.75892838 0.88331482 0.79686172
0.95316946 0.89743051 0.78465376
0.08132594 0.14094361 0.86391022
0.23472943 0.13392393 0.86921545
0.40544724 0.12258368 0.87797797
0.56115375 0.10837105 0.87634125
0.72334920 0.08950142 0.86845292
0.90653908 0.09999467 0.88147162
0.04667644 0.29919945 0.88027825
0.23823490 0.29957371 0.85907955
0.38569361 0.27392842 0.86095923
0.55983061 0.29774455 0.87262080
0.72036060 0.25412193 0.87124670
0.88599665 0.28707032 0.88564411
0.05903221 0.45589131 0.87560879
0.20960797 0.44811323 0.88212737
0.37092156 0.44651402 0.87762778
0.60075048 0.46281925 0.87598358
0.76021189 0.46321879 0.87883847
0.89988341 0.45500382 0.86410162
0.07260798 0.63243086 0.86010321
0.24023956 0.63570783 0.87939978
0.40523640 0.62566271 0.86874395
0.53511284 0.59159127 0.88464869
0.74941767 0.62954028 0.87026952
0.92221695 0.64236683 0.87341544
0.09984812 0.80414493 0.88105812
0.24471749 0.79092009 0.87214679
0.41806163 0.80417795 0.87070956
0.55755702 0.76912298 0.88511965
0.70340900 0.73989317 0.87591420
0.90274566 0.78941510 0.87951593
0.06493471 0.98326659 0.88007167
0.21703577 0.97611212 0.88373600
0.39181232 0.95379764 0.87809565
0.56851138 0.94935050 0.88225511
0.71113101 0.92346160 0.87380027
0.87979128 0.92391015 0.86875538
0.09680069 0.07566066 0.96418433
0.29987848 0.08480037 0.95673881
0.46687638 0.07321705 0.96483475
0.63267562 0.08891490 0.95629686
0.78772684 0.06719264 0.95073933
0.93097732 0.05520547 0.95679060
0.11912492 0.24940485 0.95154698
0.26537914 0.24086982 0.94507564
0.41846958 0.26812190 0.97451426
0.62544599 0.24034258 0.95593822
0.78548945 0.22363746 0.96070911
0.94612438 0.22341164 0.96007368
0.11629179 0.41415849 0.96851364
0.25998712 0.39461014 0.95916855
0.47606956 0.43014196 0.93602226
0.60970209 0.38541647 0.95913204
0.78698264 0.37693486 0.94660044
0.96368446 0.39898664 0.96020325
0.10740978 0.55990392 0.94553622
0.27734371 0.57157997 0.95683874
0.42682360 0.54538893 0.95825883
0.64682932 0.57903846 0.94881256
0.80250002 0.56919554 0.95530620
0.96914209 0.57555973 0.95512671
0.11302348 0.73201500 0.96136840
0.27211104 0.73140356 0.96129643
0.45411525 0.75744529 0.95963558
0.59562301 0.70790958 0.95276143
0.80339545 0.72629386 0.95961901
0.96447537 0.72895162 0.96644558
0.12152241 0.91999086 0.97372535
0.26406873 0.89636397 0.95988267
0.47825665 0.92376328 0.95510959
0.62714165 0.89311189 0.96298017
0.77078138 0.86980193 0.94526481
0.94647206 0.89932581 0.95745549
