super cell                              
   1.0152141621483250     
     9.5160698588808970  -16.4823164839565095    0.0000000000000000
     9.5160698588808970   16.4823164839565095    0.0000000000000000
     0.0000000000000000    0.0000000000000000   30.8472293999999998
     432
Direct
  0.6496541950251231  0.7059875453502485  0.1206918392226542
  0.4378108885864131  0.2404711072328709  0.7918770164108052
  0.2307609673678336  0.8970202160496306  0.0254439956124968
  0.6564630080966818  0.1026112261072467  0.9039346171697495
  0.6745442909189409  0.0333874457793892  0.4734052231443312
  0.8998387059895960  0.8488805415769385  0.8873553694734213
  0.7869909404969333  0.7113350479819873  0.3591529253132701
  0.3869834309417087  0.5657457205335151  0.0542360481609781
  0.5205183864310147  0.5304452906768279  0.1265796378625061
  0.7826096576629858  0.9221510962820811  0.8901541639961229
  0.9728091449818039  0.5080394564818073  0.1600040060214531
  0.6596697971647237  0.8428206143420145  0.2744656250714585
  0.8552449098233806  0.0162230366777568  0.7307704015204493
  0.3027698159229422  0.5502851544429136  0.2013022458260907
  0.1292105205884549  0.0856292062165302  0.1286149969625097
  0.1042239093235120  0.6710672296263936  0.2622838668693969
  0.1351025934562096  0.2226945215436772  0.0485084298978497
  0.1935091933785638  0.4736629490159558  0.0737889779124959
  0.4268847294579869  0.0760560366973790  0.7664501770791929
  0.6990198594588788  0.2698743029590702  0.8858866252770773
  0.6896215172513641  0.5966936701225700  0.1780740393423804
  0.9691042395069153  0.0273508158610590  0.0002720618956692
  0.8783297389307716  0.7223457618973315  0.9435579061331429
  0.5105509194703317  0.9769631026302036  0.9475947873560040
  0.6747354506926100  0.9928544827828910  0.9434548109711172
  0.9698971932794371  0.9240220218055684  0.0679032623938334
  0.7145118752514659  0.9483583641018161  0.1544285184619912
  0.9249944652701116  0.1900363340961172  0.2734892981670524
  0.4454508349428776  0.5290116776709436  0.2299190739711004
  0.0918378163775072  0.9802862489166362  0.2538373435183834
  0.1490422437480428  0.2669797756043077  0.3015466478709439
  0.7323766863813361  0.3897244376512462  0.0466699108724745
  0.0207796024866059  0.2132592846326536  0.8914829659823734
  0.4330411186481091  0.3641404695502694  0.9980632587363627
  0.8538481283460793  0.0345242961261037  0.0641635135370007
  0.7004819099243385  0.0014577669896153  0.8308751946669348
  0.0647074835670108  0.2345386695225997  0.2182633119914298
  0.5644605390503207  0.8933799011728007  0.2246545345699718
  0.1726139956128800  0.6642156821992421  0.3797920146810505
  0.7034088622621645  0.0816897542331359  0.2045814701961528
  0.9649841074756000  0.3482982257538051  0.3134401129366901
  0.7482954322877448  0.2252445976532134  0.0642748930728321
  0.5955416105169746  0.6049224307139588  0.3718918517196145
  0.5474661219477978  0.3528585281621722  0.0621291440513919
  0.5495424938505583  0.0269750848968989  0.2540181120897546
  0.9870171430249951  0.6363834366264435  0.8959450635930267
  0.4346546273843538  0.7699024396479098  0.1540492342834262
  0.2230444577205438  0.0198974299973692  0.0910597068631181
  0.2268305706064201  0.1200282208338457  0.3035508343064055
  0.4026104214142979  0.6630791383924878  0.9712427685834374
  0.1646965451049071  0.3215977789614365  0.7682906812192584
  0.4883249839401528  0.9054196114250236  0.0599703578997190
  0.8890426808293997  0.2957577888691760  0.1462627419180266
  0.1814712496981294  0.2690208545298731  0.1385238428745839
  0.8281078227317200  0.0914516542902192  0.4246546407060366
  0.3910218689355555  0.8064592385219872  0.2613042673796831
  0.5832603542845280  0.1697244023125023  0.9446956085142041
  0.9526086873613880  0.5711666170776918  0.0799972954367226
  0.9382352730641670  0.9234228792051333  0.2258235838943662
  0.8022761542268961  0.9940395000692841  0.2396402603292977
  0.6045786969086335  0.0802255256420633  0.0202507211890495
  0.3332800921512009  0.3254790112460304  0.2897195946157885
  0.4387494978100849  0.0565783776522648  0.0157461664547398
  0.5320327133800489  0.3801705925085163  0.9163751940446773
  0.1877477273885398  0.9200441399763259  0.2882946626953438
  0.2501419659412034  0.6935451716713547  0.2026591472569342
  0.0884836794195521  0.8911728229415771  0.0308855778837810
  0.7439867675848086  0.2459010165058812  0.9716059449798965
  0.3407040406048432  0.5646899055788112  0.2989239818507062
  0.7961023556964029  0.3988151971450584  0.1315166898536576
  0.3726024702664325  0.1715240572467868  0.2297922001278455
  0.5911037122470449  0.2628891746884053  0.3596468303742335
  0.1714434273811871  0.5016306209447430  0.9722023623131818
  0.0892447866425629  0.4118471677908322  0.8963008596012838
  0.3375746661543723  0.0665530839969203  0.3130414616485849
  0.3006451188597858  0.1967488039800261  0.1396912030215002
  0.8835615396814819  0.1981453381248558  0.0648939545545048
  0.0099997830538497  0.7423854729358806  0.4794598685321523
  0.8739146297573986  0.4826401305205096  0.9860501275961501
  0.1566312742072527  0.3913167830470241  0.1775894433993538
  0.8209688479467292  0.3909188448993383  0.2242210029182388
  0.0169461398285651  0.2829798689460937  0.5671967384317025
  0.2573229725431039  0.0781044627249892  0.3996862731076422
  0.9966748106445421  0.3491937635795547  0.2172161146550923
  0.3926538998046240  0.7187757047537261  0.0570746249728478
  0.2179028167306812  0.3264713579591274  0.8514619123733315
  0.6641733868806247  0.5287575892387358  0.3364408327536925
  0.4655017098935550  0.2552437618656971  0.1400871160767873
  0.5595054901339951  0.4547404465035690  0.2180392154494073
  0.1493805588567590  0.5912810139007907  0.8342590441991191
  0.9773496457963163  0.6561758566028038  0.9904322901639404
  0.5609332673582116  0.9801600616356640  0.1406119058199606
  0.3989864531338698  0.8995057114769553  0.1660536832862885
  0.4007347237715640  0.1427117408384285  0.0757185942621385
  0.3457078503155419  0.6828390227046219  0.5510891918951606
  0.2157017285227515  0.8231927365876227  0.2037646518738302
  0.9668520394049118  0.4785225125981249  0.2587518345239019
  0.3557807546182604  0.0605330377057758  0.1546476012343106
  0.7929983592047010  0.8114735127252347  0.2715332320046741
  0.5438727760176816  0.8428417934884519  0.9788677287388754
  0.7103908108238008  0.0821597332895470  0.1101442978403550
  0.3877507794610394  0.3610827394392458  0.1007738820980031
  0.6988303089846415  0.0499877747271776  0.2971082612712281
  0.8319950376622866  0.2457471637581662  0.2273651980988443
  0.5363149724008721  0.3897674881892172  0.3833252038441105
  0.0603180719845991  0.4270515903993282  0.1234941581185866
  0.7910971098702725  0.9173907182889874  0.4764996507425884
  0.2758494556259390  0.3047543644265057  0.9569971411588122
  0.3906331535398067  0.2194346687807889  0.3542267646183962
  0.8773251932890240  0.5308141922258011  0.4607151526739788
  0.6892707200284710  0.2343656827032125  0.2709671890299279
  0.4500159933472999  0.6198274604476498  0.1324870716464383
  0.4647159933003135  0.6857774864320861  0.4828577495612835
  0.7038906081554424  0.9451025916827183  0.5566633383326784
  0.0699469468353905  0.5476414303473378  0.0191851862507985
  0.3087719149795543  0.2888050029560200  0.3942886559722709
  0.1648108249029621  0.4494777682153057  0.5107379302458330
  0.2534855700406322  0.5699377194002708  0.3741157330467145
  0.1967630575554186  0.1573907685471848  0.2137113923759976
  0.7892239467904451  0.2025047784487462  0.3565351966796427
  0.6220180015566984  0.1680245758728574  0.4300254496016997
  0.2395143427183567  0.6333512770984211  0.2858085867258479
  0.6090031476639526  0.1099584441913441  0.3408709028853052
  0.6831005947712744  0.2090553551811754  0.1411483244994177
  0.0569288349367328  0.8152498413195843  0.9367886580636351
  0.2636943489094614  0.7608273679009205  0.1078909486894478
  0.2235290073266293  0.5535781332183267  0.6103139401219527
  0.3533616172122225  0.9729574083965216  0.2349383443458248
  0.2947260948931495  0.6210636892841861  0.1319917554137325
  0.8649715542436460  0.9739858239850645  0.5901566248592731
  0.1313486848426219  0.1169069004709611  0.3714210526144064
  0.0428636917861314  0.6118060458915190  0.4922765580798452
  0.2545055374027920  0.7939301684368399  0.2963081505315915
  0.9282096140751385  0.6292186883246240  0.2081655492696147
  0.4710153615009599  0.3205420210481178  0.2849001099416040
  0.1492302527084634  0.3345534509746906  0.9470556703139770
  0.4126798128501268  0.4778752177709442  0.4878758360432516
  0.1650772654520371  0.4391149390553619  0.2781516166659314
  0.5247828494345788  0.1020735271057042  0.1005972951517336
  0.0384280377970973  0.6327251153353894  0.7999869509630435
  0.0016288830710655  0.0665440143270803  0.1867965843522231
  0.1587153459358079  0.8558317858331260  0.1302908193962138
  0.7226099111441975  0.7567701577931191  0.4415499870661612
  0.8852451421104029  0.0520639449988891  0.8258490126443254
  0.0028604018035523  0.2791645758875665  0.4695479681890792
  0.4976825168827727  0.1606070117724385  0.2800964445087871
  0.2863230813605921  0.4145066877297819  0.3524875278022711
  0.0863127468525893  0.1960479026792285  0.5071772464129859
  0.6039523773223879  0.8250823930966011  0.7034707818184353
  0.9197935924855418  0.9188039191828596  0.4216180512466240
  0.3980601958234262  0.0426874003927614  0.5660779403902498
  0.9256001534453304  0.3927052596509600  0.0439711517375809
  0.7613052086073845  0.3293197183993956  0.4242491931576927
  0.4432661475541694  0.9789205090951024  0.3163102179604160
  0.5246494654186888  0.8729045699747464  0.3230367110145016
  0.0660506351323270  0.4895070076080096  0.7591285512195597
  0.5422448610818073  0.6732818758994330  0.2957882474259965
  0.2272926132489255  0.2425951163916897  0.5777434360770994
  0.3138991123800259  0.6718353400240994  0.4530143860286138
  0.0270093714556781  0.8698986967239786  0.7582264153597053
  0.5332068341639444  0.9919782010749955  0.5228759052317750
  0.8281072817698266  0.8218783463244207  0.5448099124131249
  0.2048474270710774  0.6934475912371759  0.6202082006888243
  0.8453453057529965  0.7293781423576975  0.7485351737613858
  0.6453978214289151  0.6379401150561964  0.2552000451612885
  0.6989474982489070  0.5662822509205111  0.4279651035134270
  0.6789200346860498  0.8080559958913588  0.6010632072348061
  0.3957065876115588  0.3885601404902923  0.5747924967684008
  0.1207307027827882  0.7945525152153603  0.3501308665012969
  0.8018980507798321  0.3456756787022564  0.3280517220889893
  0.5800953933598829  0.7396140724193335  0.3838381116690667
  0.7416566515341321  0.7993251080421835  0.1923580703636438
  0.6189637137490339  0.3361863727665664  0.4631737748014554
  0.4630382125311128  0.2188458015254821  0.4424639653457740
  0.1659741675553999  0.9689561023142961  0.6222923619797889
  0.3288511859287471  0.8252584855495877  0.3870359869088149
  0.5408662160296791  0.1865287800937326  0.6196443738018282
  0.2758288197652944  0.0444370138090520  0.9774305711048452
  0.7442554192704888  0.4898298053633436  0.2140876048557230
  0.9515892531888361  0.8070492051918688  0.2948332887143771
  0.6722159740560286  0.5818842318913520  0.0799615744428474
  0.5203744068476227  0.5782572286119232  0.5460117538401045
  0.9606420392303661  0.4333821127080312  0.4777653385826429
  0.8454592825382267  0.2580920153319441  0.8707986880002796
  0.4180747782667153  0.6807193718673138  0.2414245969139934
  0.2515358032669063  0.4561392118797639  0.4377565257926137
  0.8538428103172082  0.4243717113495284  0.6217724979799952
  0.1139758584049179  0.5324603667437945  0.2011838976870134
  0.0954144780781781  0.6843200283290338  0.1657579092206382
  0.2441470314687902  0.3589007195635733  0.2260897918226829
  0.5602476565400987  0.4606760449183858  0.4705469112016482
  0.2537021012748088  0.8874700872461310  0.6195234459704240
  0.3033573455388185  0.6245541697640525  0.7931717074678326
  0.0311882060828884  0.1293994131544791  0.5926373102375615
  0.5764597013318365  0.3162785881001984  0.2158553169066157
  0.0250426164053637  0.8088573780027984  0.5828769281566889
  0.2557115620572604  0.9154193628106931  0.8177871970107062
  0.3832861339026701  0.7259469092065132  0.3484222589953943
  0.3480037678460752  0.5438727165073927  0.6604285616174050
  0.4896980876944624  0.6194239040046325  0.6953193191792567
  0.8828955160647167  0.1459314032855890  0.6100697049565375
  0.4087888690414315  0.3176891788744094  0.4867912593394054
  0.7812222675832118  0.4901369157813773  0.7200367604250481
  0.6707302039150614  0.2108786920997679  0.5220316108575377
  0.4860590344017748  0.4706706021856534  0.3099967700713810
  0.6208070493508144  0.7454317647981592  0.5183053265172880
  0.8676619052305389  0.7608699705122147  0.1922994304556849
  0.7550066353937339  0.2686001596801194  0.7308264733198995
  0.3951816281769756  0.7110761448129758  0.7216519417480938
  0.6665279023558610  0.3382373473184103  0.5696633237435375
  0.4120811690548419  0.6080022560321382  0.3837209551754734
  0.4680429888702877  0.0832708339452476  0.4831358383721749
  0.2139822902552951  0.9302108241374986  0.5311195189285253
  0.8977672876275116  0.3077500867174943  0.6522640800496669
  0.8617649506478742  0.2860420923988262  0.5506150216539432
  0.8395858618164350  0.5800074191085387  0.3809544080301991
  0.5239102034989399  0.9850927054194528  0.4166757612603891
  0.7800716073083038  0.8775216482082007  0.3716306745720466
  0.8189998278459950  0.5126888134323430  0.2959662497341407
  0.5618076195502412  0.7141409169668586  0.1952528460910151
  0.4916671566892951  0.2308892785940724  0.5363427540068657
  0.2978530205646453  0.1423887242706422  0.5644729323699076
  0.9742231437950456  0.7860741252200034  0.3904895033185198
  0.9800889882456909  0.8619791868037106  0.5009062988877826
  0.9292988657417675  0.9402952631269447  0.3285093373697669
  0.6718586530582409  0.5560612052550670  0.9064139978361772
  0.6568538492450433  0.5693249824246581  0.5974467599309048
  0.7208875228636054  0.5769440411321096  0.8060874528301534
  0.7068966289851238  0.0815269583472133  0.6531349884469561
  0.8396655779622583  0.1197056279460852  0.9048133780006385
  0.4503173824456018  0.2725370646161608  0.6144013009396966
  0.5043071487908291  0.6869441349214556  0.5905484052972189
  0.7492303752711945  0.9570881517978810  0.6606145802428118
  0.7391671728523246  0.2421811731403547  0.6155147098835040
  0.1305345306552896  0.8014151378392143  0.7519582908714901
  0.1887155214869048  0.4623441443905200  0.8167755371703649
  0.1223977540777665  0.7561252986199328  0.6564996911052853
  0.8776222181285559  0.0507051336691562  0.3321674016251590
  0.5433842139819406  0.6075594103784037  0.4550888939235361
  0.8511094723156457  0.7305462167229865  0.4651015444949380
  0.7297071836574441  0.5143595201316855  0.5056019770823738
  0.2634126304338351  0.3922817251528653  0.0439979426393429
  0.0623501148206544  0.6155581674225460  0.7061264920683327
  0.2993956028337883  0.0643231810078562  0.4821799332955359
  0.2429126611235115  0.3281937387327724  0.4934931082905148
  0.9626314981993831  0.6656216306154056  0.3099770380807262
  0.0833921617670819  0.5261178920128171  0.3217522746549821
  0.1055749324524788  0.3846237521810225  0.3612690251458916
  0.8093344051227135  0.6572942982776517  0.2644303487522007
  0.6887429704744079  0.6523885044013726  0.5136402379167174
  0.1573372056433726  0.2623179075288693  0.6651867061886502
  0.3188210985591255  0.8377794820087405  0.6907050579346444
  0.7952053160248295  0.7175601229425308  0.6269971052283235
  0.0315852231185773  0.6687970887197998  0.4071732175499724
  0.8538641361579890  0.5379126643019241  0.8346103409879027
  0.9286359774549411  0.3471422625117313  0.4034106814082372
  0.2220156909358996  0.6097966675642993  0.6968371681453096
  0.0243501587851524  0.0941530863012529  0.2916929415796965
  0.0331612370064229  0.4451127784216551  0.5528225422053404
  0.1269151674646327  0.2641633150861549  0.4115436138256924
  0.7541600719500746  0.4872445459578087  0.6197231373328436
  0.0525221850989211  0.8069208730534277  0.2271228995187734
  0.0033577577817620  0.0925207783690009  0.0882967876514204
  0.8974095050046397  0.5500448150295663  0.5507917706959398
  0.1074713993091859  0.5153350603334577  0.4227421312852016
  0.3380064451025867  0.3836797026526153  0.6961600403883601
  0.5967636475695206  0.1227605741951772  0.7073242168931489
  0.1157585258996685  0.0950631462945053  0.6593865424331552
  0.2413300415868511  0.6506201117503998  0.0165328479358914
  0.4959637075048519  0.8233117837394177  0.7884049674539262
  0.1774441398121736  0.6045954512447815  0.5227523973794074
  0.4321670353988077  0.8438261229229084  0.4854153282819703
  0.5470971990358238  0.4006638305737867  0.5537494856642632
  0.3320447253121527  0.5015205695794647  0.5554076637402917
  0.6186750650265065  0.3993107157069718  0.7459470922459217
  0.0500019332309852  0.0528736280050049  0.7638701519467519
  0.6262400848430975  0.6734855859912723  0.6522613343355153
  0.2893412671697033  0.1942725351927325  0.6515045444836053
  0.7918286476651650  0.3731230859161193  0.5075279931002330
  0.4963497432081772  0.8200317059651137  0.4124992135060592
  0.6588557385411895  0.6853165033477703  0.7444616214280140
  0.2126383567107594  0.7085494095085534  0.7583116050688888
  0.8149591721762223  0.0033074050170385  0.9726367233539579
  0.7090199353555758  0.4288234758939266  0.3890768375211164
  0.8887701065931842  0.1159814365632308  0.5232181240539548
  0.4020398915080809  0.9294600658646570  0.8600452469536206
  0.9972034326290539  0.0992162213332668  0.4317794314648393
  0.1880539937639827  0.0163421909711006  0.7977127872827403
  0.5766445146410469  0.4156726309677588  0.6427633797296359
  0.0932761283345237  0.9484114821112203  0.3532504988465380
  0.5820062312429005  0.8903632088683425  0.6331171144629695
  0.7349444563137744  0.1155584177563330  0.5589057858042811
  0.3371761416992895  0.0758155957247474  0.8355590972024621
  0.1530862814221940  0.9919800708394061  0.7133683373746224
  0.6854389011540406  0.1482840009693550  0.8108401994411375
  0.7868021042430658  0.8320417931876910  0.6971257017083754
  0.0973843809448756  0.0200607255758724  0.4485538382415886
  0.3039111689603852  0.7487556006582174  0.8473086063723467
  0.8081570564005802  0.2212714468071094  0.4688269051260872
  0.4479982416129135  0.4711191889845291  0.3987101106135126
  0.0149364390256373  0.5833022213302527  0.6187499522186198
  0.1897944786489894  0.7811142121658061  0.4754092080561939
  0.7008679841852021  0.0182594438922723  0.7340112846254883
  0.1511090323785504  0.8968367557347312  0.4397875550007874
  0.8584863371850484  0.4249802890056170  0.8958046119392314
  0.9133930773139425  0.4570517898919285  0.7137296771232179
  0.0420937294442726  0.9430162451111901  0.8504747991309008
  0.4889322218757829  0.8927727391354732  0.7003306454833219
  0.7487070813593093  0.8552602720656436  0.0471902955984349
  0.0875467494550894  0.7165358599277658  0.5623068624452463
  0.4353132278241968  0.9028409967010854  0.5964562185915212
  0.2731223761760751  0.9532960058314492  0.7069121315135748
  0.1428575486593815  0.0476755803322360  0.5408154774174968
  0.0244660273378722  0.7890710778537363  0.8266211716909100
  0.9709229037045838  0.2194813010247647  0.3633029590571507
  0.5462792218641871  0.9869049151142303  0.7881867072273255
  0.9538834819911812  0.0151689724909354  0.8972244033679089
  0.5565273291861784  0.4432079125764330  0.8376432725229975
  0.9303860076683884  0.4971235502924114  0.3645260584646597
  0.8740326483226980  0.1618770758590323  0.7026223707357391
  0.0931698509439364  0.1295128338480030  0.8415881644898630
  0.6541789347039144  0.3638369421528786  0.2918468158676527
  0.2159476967933314  0.2072837392841853  0.7555138084532886
  0.7260085886323866  0.8817168140264460  0.7688223186330683
  0.3349203792050313  0.8405917167121101  0.0208133443769414
  0.5918609339812008  0.2397864746353677  0.0307939705898307
  0.9626817398927324  0.9509068315044592  0.6862704978076293
  0.2965144491928105  0.8074672836499709  0.5494693223476630
  0.8623477599624992  0.1739528016747995  0.7901385544486458
  0.9124983062981011  0.6377416860057759  0.7497526190813776
  0.4140534145795300  0.5453930657347632  0.8537759009900431
  0.3939663755018603  0.0676502920154461  0.9126006093247195
  0.0047653306694481  0.9448712588893093  0.5967827667073178
  0.2779113003445531  0.2006688245879706  0.8338643729616465
  0.3428382330051935  0.9221914781027847  0.4712939960594193
  0.8949975889086174  0.6193168466535818  0.6483007227124572
  0.4842967051465069  0.4977590843990514  0.6449377719558036
  0.6915252403901420  0.8484521590101336  0.9634177306597443
  0.1742711160696565  0.4482079532878386  0.7126022009194404
  0.6402747606415609  0.8707053777729242  0.4455594594368361
  0.9677585792067216  0.4590624249905265  0.8263753778760270
  0.9662253236523101  0.1922753100287841  0.9822359554533280
  0.9447323845646534  0.3223182373911108  0.7380315655694188
  0.3354124571250673  0.5075559405367276  0.7582299537294781
  0.0039247319686918  0.1879679199353996  0.7586972053678083
  0.0635518550043041  0.4574995407345485  0.6517644005462012
  0.8038165219216803  0.5372234182540111  0.9286699669218621
  0.3010428278738300  0.8984449983253184  0.9438537705641462
  0.9811147485838277  0.7394366424477540  0.1336665643815141
  0.5784193286325450  0.6160149648348232  0.8331376640859333
  0.2092934603666759  0.6417896034279109  0.9193370412091983
  0.7604719216979060  0.7674880763211401  0.8187143209034439
  0.0399166836897856  0.9394487411301843  0.9503460297903767
  0.7328397926984546  0.6982389066297745  0.0065024253250894
  0.9982330092557985  0.3266168203935982  0.8223315379643290
  0.9755139980484809  0.1028772651509904  0.6768195107075877
  0.6836267497668702  0.3699001003115957  0.9511364062603503
  0.5781319493424459  0.0761689740862969  0.5955176942974341
  0.1746781561931937  0.3670161802025212  0.6063040501181201
  0.8589143611959519  0.9476869529990648  0.1355377469103477
  0.8049163506636620  0.5661596980005605  0.1239567469328390
  0.3538340060069444  0.4937766491378435  0.9533431383228480
  0.5249990401134422  0.1151546388591714  0.8450445120738412
  0.5241603350228027  0.2377656697540288  0.7134892681499109
  0.7124174459546824  0.5720984972406468  0.6933967932629246
  0.0157223449090812  0.2399063898783667  0.1286803017973103
  0.9066546417115176  0.9093958524310155  0.7883480996918008
  0.9603750294755752  0.0085722869157689  0.5083824048745478
  0.1574901299518841  0.7396248404562142  0.9737149308244244
  0.4854172085425615  0.6655039665215097  0.7853926203781686
  0.3872430416880113  0.4016859168542276  0.7909949860086192
  0.5728620056374025  0.7143659596622252  0.0249987057477526
  0.1350681433292142  0.5989269306255792  0.1037876375916333
  0.3851675009929996  0.3721755011817853  0.8853693198095673
  0.7963787897423915  0.5791145885371660  0.0152199062415312
  0.5343636286688155  0.8288579435210142  0.5467379182133809
  0.4419268631708745  0.0023467397107427  0.6586931982764300
  0.0367418403339780  0.2930362278613085  0.6651575190311505
  0.6752557717766116  0.4148809415518303  0.8570086479354998
  0.5712769934104190  0.8197571429338012  0.0984873404003023
  0.2839266708185813  0.5490825343615565  0.8959275319636258
  0.4048598903149386  0.7036193093923501  0.8709200836606819
  0.8582256922589823  0.7023061351613799  0.8440832230528080
  0.4784787068513079  0.2285285852794581  0.9789717990857992
  0.1318516066234416  0.0658851523351636  0.0195589939614870
  0.6762434449947824  0.9548748040619793  0.3711478669405696
  0.6219112288268497  0.2540698184888395  0.7920605125481065
  0.2946265582977607  0.9517001195911843  0.3876029905385009
  0.5128442207005108  0.5414748563814146  0.0207472023138432
  0.9855815679610065  0.7904579622011707  0.6772245430941990
  0.7845207055206026  0.3746627442284896  0.8015173646995828
  0.1605997006369719  0.9138837348610906  0.8807397628119638
  0.2865959459610203  0.1999912905001358  0.0305597152343453
  0.3632670460573258  0.0974771014592961  0.6489232924818498
  0.4318568616752807  0.7617838777008146  0.6271758412300854
  0.3232567258151512  0.1376057271560134  0.7281592173887236
  0.0871717054008184  0.1492694013009411  0.9551802301973097
  0.4355200725172069  0.3123118656462953  0.7082255955447988
  0.3932285515292849  0.3472525832299304  0.1942553642388170
  0.8746548529329325  0.6852939172130059  0.5496902706248075
  0.3828492204396957  0.7937425435715738  0.9456404401200881
  0.1211393195792742  0.7295950846509464  0.0595539966720758
  0.3120199573426827  0.4540802720911288  0.1263555404327762
  0.5624688772324039  0.5190320280272114  0.7490051102592529
  0.4526093001265378  0.0835627155076452  0.3850140839234473
  0.8715580785414592  0.1177982825527210  0.1716205854496443
  0.3400721135435620  0.2096194879910749  0.9294195785745936
  0.3685426208816480  0.8788691803807499  0.7711684083032923
  0.5550606590248163  0.8968272484271619  0.8830509428314766
  0.5130359081031944  0.2414909441570064  0.8864823729800565
  0.7126414804761202  0.7332990981807128  0.9012953030500963
  0.1702827927402024  0.0703315953506521  0.9021457414799177
  0.5171657028219164  0.1319030328064211  0.1854367844315342
  0.8338907334146389  0.7725018462722250  0.1034064015227752
  0.3390309808846084  0.9401567015077764  0.0968499427225048
  0.9381162818328906  0.3409209470832538  0.9521900730725666
  0.6370457034888367  0.4002375332971853  0.1301541175196241
  0.0527669215950248  0.3320739808190692  0.0359892865604350
  0.6736606208190539  0.3287409899701946  0.6645302619163038
  0.9301785598636864  0.7587180249107210  0.0332682826150440
  0.6785782834854046  0.9578726550658360  0.0370340302740512
  0.5542562978003401  0.6848466652988122  0.9236293269936987
  0.5052342568130697  0.5139080356937162  0.9208929429160109
  0.6227229539392324  0.8036345621381962  0.8450780178289572
  0.0601879016658727  0.9233987541448710  0.1589105448217389
  0.2206924957983200  0.0111961924933688  0.2022261645707066
  0.6381147397366169  0.4871660421979752  0.9974707034839047
  0.1810199371465891  0.7681613633590958  0.8723741534490449
  0.2535690465667673  0.1855529011508694  0.4647074681020197
  0.7741644428572186  0.1221617295532758  0.9941436125847577
  0.8605521029544613  0.8680440078589189  0.9811353161552091
  0.0329341913278754  0.5194800258820269  0.9314701813757658

 -0.10724446E-02  0.59393976E-02 -0.19523306E-03
 -0.11958601E-01 -0.87612400E-02 -0.20616078E-02
  0.74627604E-02  0.89765327E-02 -0.29430266E-02
  0.34980870E-02  0.53856781E-02  0.60484949E-02
  0.38629235E-02  0.29263118E-02  0.44589111E-02
  0.65578737E-02  0.12895705E-02 -0.77033989E-02
 -0.34772750E-02 -0.97332308E-02 -0.82737481E-02
  0.60023276E-02 -0.69413672E-03  0.74518594E-02
 -0.15609200E-02 -0.15240348E-02 -0.87958403E-03
 -0.29197864E-02  0.39909496E-02 -0.28025237E-03
 -0.35769182E-03  0.68079819E-03 -0.39996395E-02
  0.73330866E-02 -0.29942222E-02 -0.39945227E-02
 -0.84656223E-02 -0.58156088E-02 -0.72900511E-02
  0.80059952E-02 -0.42197700E-02  0.24115631E-02
 -0.38622725E-02  0.44632745E-02 -0.98291661E-02
 -0.43156510E-02 -0.17683670E-02 -0.61667282E-03
 -0.65922838E-03  0.73352817E-02 -0.17465367E-02
  0.76076192E-02 -0.67321850E-03 -0.48738527E-02
 -0.95187657E-02 -0.41356551E-02  0.20877130E-02
 -0.10990564E-01 -0.30713737E-03  0.96877681E-02
 -0.96486215E-03 -0.59788692E-03 -0.13837366E-02
 -0.10829438E-01 -0.13138733E-02  0.14243084E-02
 -0.45530415E-02 -0.25768313E-02  0.22562987E-02
 -0.77955957E-02  0.29199252E-02 -0.32037212E-02
  0.47186644E-02  0.51535675E-02 -0.81104581E-02
 -0.40525879E-02  0.20972327E-02  0.56729298E-02
 -0.17309622E-01 -0.25121399E-02 -0.23135042E-02
  0.32459683E-02 -0.56236548E-02 -0.26184645E-02
  0.56384199E-02 -0.11288546E-01  0.67187773E-02
  0.23547626E-02  0.19892746E-02 -0.34162764E-02
 -0.63713368E-02  0.70340228E-02  0.76216686E-02
  0.17134192E-02  0.52947330E-02  0.73168853E-02
 -0.14194636E-02  0.19256506E-02  0.37298260E-02
 -0.28005320E-02  0.28252898E-04 -0.43254687E-02
  0.12982930E-02 -0.14561404E-02 -0.52539835E-02
 -0.29331938E-02  0.10144909E-03 -0.77956929E-03
  0.86855017E-02  0.38974429E-02 -0.30964574E-02
  0.41401154E-03  0.44263119E-04 -0.45385545E-02
  0.74375617E-02  0.81600538E-02  0.53947119E-02
 -0.10927380E-02  0.82267762E-03  0.41585356E-02
 -0.94185976E-02  0.48140518E-03 -0.14040656E-01
 -0.49461607E-02 -0.54301265E-02  0.97507349E-02
 -0.92741885E-02  0.34986837E-02  0.50735631E-02
  0.62337700E-02  0.45240076E-02  0.11213986E-01
  0.13154514E-02 -0.31410153E-02  0.22074308E-02
 -0.91855178E-02  0.98981077E-03 -0.28736001E-02
  0.13573609E-01  0.78382012E-04 -0.80553559E-02
  0.47641841E-02  0.48665678E-03  0.89523184E-03
 -0.56749148E-02 -0.87754802E-04 -0.90190239E-03
  0.15205391E-01  0.53807227E-02 -0.39098778E-02
 -0.41685308E-02  0.38029126E-02 -0.47168769E-02
  0.25117497E-02  0.71472168E-02  0.77191588E-02
 -0.38670274E-02 -0.20538572E-02  0.95969700E-02
 -0.75309133E-03  0.65286093E-03 -0.80290346E-02
 -0.55257320E-02 -0.38053631E-02  0.38815185E-02
  0.55010592E-02 -0.25465443E-03  0.31043343E-02
  0.88147378E-02 -0.37139617E-02 -0.47125336E-05
 -0.15720738E-02 -0.90359003E-02  0.64148206E-02
  0.18263513E-02 -0.92474372E-02  0.23822109E-04
 -0.12894044E-01  0.24075914E-02  0.18884002E-02
  0.53003049E-02  0.16520867E-02 -0.12444268E-01
 -0.77899119E-02 -0.12372709E-02 -0.14987968E-02
  0.33888541E-02 -0.12413929E-01  0.25319433E-02
  0.11143215E-02  0.74006196E-02 -0.33002283E-03
 -0.24315992E-02  0.52110308E-02 -0.90979631E-02
 -0.47013322E-02 -0.35778271E-02 -0.11194423E-03
 -0.16753488E-02  0.97296479E-02  0.51328782E-03
  0.17741404E-02 -0.58433612E-02 -0.16330942E-02