super cell                              
   1.0000000000000000     
     7.0910579868165264    0.0000000000000000    0.0000000000000000
     0.0000000000000000    3.5455289934082632    0.0000000000000000
     0.0000000000000000    0.0000000000000000    3.5455289934082632
   Al
     4
Direct
  0.0341326523070141  0.9824506875396677  0.0749120051669376
  0.4166049988752071  0.0307445341884548  0.8998820878912809
  0.2003560800465961  0.5004126342727407  0.5731701430419259
  0.8489062717711826  0.4863921459991366  0.4520357638998552

  0.13517741E-02  0.10878668E-02  0.43585396E-02
 -0.65150499E-02  0.98652244E-03 -0.23329124E-02
  0.59469721E-02 -0.72629302E-02  0.31110295E-02
 -0.78369630E-03  0.51885410E-02 -0.51366567E-02

           1
   2.0000000000000000     
  0.14417361E+01  0.65596194E-02 -0.42606841E-19  0.00000000E+00
  0.34513914E-01  0.98306434E+00  0.77370617E-01
  0.41476746E+00  0.31301022E-01  0.89856611E+00
  0.20203340E+00  0.49631568E+00  0.57492505E+00
  0.84868523E+00  0.48931895E+00  0.44913822E+00
  0.34801042E-03  0.58365793E-03  0.26009952E-02
 -0.18606714E-02  0.60664865E-03 -0.14079810E-02
  0.16602990E-02 -0.41322642E-02  0.18245024E-02
 -0.14763805E-03  0.29419577E-02 -0.30175166E-02
  0.00000000E+00  0.00000000E+00  0.00000000E+00
  0.00000000E+00  0.00000000E+00  0.00000000E+00
  0.00000000E+00  0.00000000E+00  0.00000000E+00
  0.00000000E+00  0.00000000E+00  0.00000000E+00
