super cell                              
   1.0088804843306833     
    22.2041630040554239  -38.4587384625651936    0.0000000000000000
    22.2041630040554239   38.4587384625651936    0.0000000000000000
     0.0000000000000000    0.0000000000000000   95.0096881999999852
    7056
Direct
  0.0388695949822567  0.0688255355005065  0.0135513759524333
  0.0949235682253868  0.0541107723633730  0.0175324707358064
  0.1737514448601844  0.0679589514620026  0.0185296745871728
  0.2331473274527485  0.0529277536280876  0.0141042105642441
  0.3020268274199231  0.0493358385818641  0.0186687042382842
  0.3763780255628907  0.0410944457393788  0.0166679290834791
  0.4433174516053274  0.0396709606399205  0.0133092125097254
  0.5196811882593015  0.0517973979878250  0.0162845201418719
  0.6138273186371483  0.0496149505819990  0.0175279501548099
  0.6868635213655675  0.0506239657957700  0.0147657615938345
  0.7534026722315321  0.0628270358474035  0.0049238245335364
  0.8358522107261235  0.0716688193058883  0.0151891591307543
  0.9037179379701611  0.0736617075591931  0.0197626902784980
  0.9656891572806525  0.0599539912133542  0.0188674176518484
  0.0320976327507556  0.1360018330375944  0.0160692820992160
  0.1061342140579517  0.1394745043781545  0.0154829379778164
  0.1752592305635108  0.1402865704935617  0.0112958550491565
  0.2495015762063967  0.1360206394390587  0.0208874781806685
  0.2990555113063551  0.1119047141942276  0.0158153771048044
  0.3844305576807455  0.1210869399837540  0.0188708882467253
  0.4529730165885966  0.1131647256640221  0.0139029553508875
  0.5291584080434436  0.1261260055768113  0.0186021774132704
  0.5959694604007552  0.1054620245391563  0.0188787806817636
  0.6741763841290084  0.1201566392422059  0.0153077090266965
  0.7454788422601173  0.1326444246495654  0.0191565904879895
  0.8198527932936596  0.1291884801130382  0.0160640585690697
  0.9014377953968371  0.1379632733164619  0.0204145311083529
  0.9634719905362187  0.1358528123842982  0.0113177293931416
  0.0267078174911508  0.2108809016632153  0.0150316951123436
  0.0953928946664879  0.2060549488621719  0.0161116172176064
  0.1681944653180943  0.2011496265430102  0.0236439190926747
  0.2665765973731106  0.2138761673583985  0.0187999601984297
  0.3328836647032690  0.2004365510715575  0.0171826844988288
  0.3948770021229202  0.1911442341070933  0.0229871088642684
  0.4577689450647272  0.1803341906659437  0.0198901285319451
  0.5361887703929840  0.2014963789507946  0.0169318390847054
  0.6012877823466863  0.1892054863318006  0.0181610347978818
  0.6655949566394720  0.1856914154762536  0.0131801045430712
  0.7408123627919988  0.1976064831989656  0.0181154895498478
  0.8141081960965664  0.2080026498939219  0.0191186491558507
  0.8845948035950763  0.2074289714304178  0.0189468990265430
  0.9573853014361542  0.2032291703515841  0.0156351390170476
  0.0439096789637341  0.2880527296003845  0.0154780916901762
  0.0986920977594221  0.2718857766264953  0.0124754724652104
  0.1648446216803534  0.2693663823221112  0.0223642130948921
  0.2283927872211000  0.2587497800200562  0.0202284625624945
  0.3394375296565585  0.2787043466672880  0.0189024980554191
  0.4020531571571695  0.2761892985077741  0.0206207121477449
  0.4702825466425153  0.2646773300225874  0.0119942580845922
  0.5354336757342125  0.2700934667355798  0.0055782461529392
  0.6009579949337387  0.2799736510015174  0.0248935440243600
  0.6603214242804533  0.2595698546067523  0.0180909564003239
  0.7278946000969021  0.2587061350959697  0.0177934410034372
  0.7993817823216591  0.2705694182115430  0.0232311721527443
  0.8826894558490324  0.2702709224272396  0.0172698866708891
  0.9529437824197139  0.2675579973090637  0.0186017761954684
  0.0209302432690405  0.3400358962727054  0.0172086145201297
  0.1212026503964143  0.3393503893528670  0.0156242940002488
  0.1887409821215976  0.3409030640844019  0.0151671052268729
  0.2598553240153057  0.3459439349264513  0.0216647081054997
  0.3205175351743286  0.3388883307194757  0.0197963427924063
  0.3941195170017266  0.3470655536858058  0.0180574680297868
  0.4562719511061987  0.3407990438700024  0.0141137824943439
  0.5355563985432878  0.3384421625765317  0.0187385656453270
  0.6143034003420424  0.3473868821740366  0.0191872976656452
  0.6673132692985607  0.3287669292324049  0.0158139287686179
  0.7353226776278891  0.3373929277142335  0.0145676919922056
  0.8012497539719566  0.3369850249097454  0.0179903498067522
  0.8789555545620513  0.3392202312973347  0.0172346893151691
  0.9468574786666932  0.3300032746860101  0.0163928830094268
  0.0153085860197365  0.4108248573428681  0.0198638164906917
  0.0898875118848912  0.3834481613144706  0.0203591377943430
  0.1792072025403395  0.4204435093325535  0.0142882564270495
  0.2516922254230951  0.4183280826266608  0.0225068836063006
  0.3257743640053830  0.4197446558656301  0.0150944851133872
  0.3946584151096835  0.4156516536240075  0.0122538427463241
  0.4624674058330651  0.4183538553236436  0.0163166203974606
  0.5284730863127768  0.4110024453183826  0.0190173097426948
  0.6004204114296187  0.4062109707810325  0.0132978074610731
  0.6737326843375105  0.4204310484157284  0.0103443870751336
  0.7110172171021403  0.3980952287552830  0.0232254178592339
  0.8115743164319955  0.4061789614851371  0.0210634418689260
  0.8772722165416317  0.4073305650166233  0.0256092872829884
  0.9485237947026771  0.4115713274885511  0.0160298421178682
  0.0263497545025495  0.4823538999879196  0.0189634935107776
  0.0947636021290426  0.4725066103274100  0.0162314576395175
  0.1592563999663773  0.4806561391637789  0.0253198453326142
  0.2403183114500846  0.4755916707694238  0.0260066674211268
  0.3122966557178388  0.4830127052509475  0.0194279118844955
  0.3871881455231637  0.4896278214670522  0.0212195826448823
  0.4657356300783065  0.4908774488678295  0.0186129287539004
  0.5328957761800934  0.4886614101539037  0.0159760400789071
  0.5929608660468974  0.4898280649815249  0.0250245868878175
  0.6551999355767557  0.4846655084480532  0.0146119978884496
  0.7439261505423431  0.4740395479622914  0.0152544889585022
  0.8242489427777927  0.4943346092891596  0.0184360457969205
  0.8861714622293090  0.4808346344545826  0.0181031912094821
  0.9554832678493188  0.4851156835964876  0.0226808895912557
  0.0278169756492625  0.5633390568613535  0.0203792593619731
  0.0950278171543093  0.5481639332147145  0.0184985623929660
  0.1704721892196682  0.5499295328547726  0.0159532978139595
  0.2331301968016186  0.5402659445808312  0.0180645257505915
  0.3029139714321585  0.5494681636860846  0.0204538013020712
  0.3786171891668960  0.5545333779851515  0.0145970597218906
  0.4575067233536572  0.5545900915057659  0.0122233436944508
  0.5209553795991061  0.5472822684817091  0.0085758744128103
  0.5946749077556881  0.5520474412160556  0.0173916999015411
  0.6652837272941615  0.5671947159216258  0.0190913577300306
  0.7454010248856554  0.5505568757766464  0.0189236519735127
  0.8121659611518278  0.5558418448910212  0.0186080435639465
  0.8842407105104084  0.5554252827805406  0.0150207478265756
  0.9556651987493897  0.5523922876583026  0.0160826696618506
  0.0300366225137052  0.6289848893619181  0.0235323158000506
  0.1117143103479940  0.6217462524012534  0.0266821671795225
  0.1737358445712707  0.6206415590999008  0.0199867857564780
  0.2495443348549109  0.6146328917599005  0.0171472698827980
  0.3183265441366062  0.6262433444178389  0.0164276801882646
  0.4024928355314526  0.6424922482980117  0.0172441975773619
  0.4630503576275675  0.6185698500069929  0.0140467369630229
  0.5304079759133243  0.6246726612352781  0.0164565445000772
  0.6018464693181936  0.6255500527102890  0.0179308799302273
  0.6846715609741022  0.6348229551873655  0.0204691136141274
  0.7505722571380726  0.6196789251923763  0.0218929933764149
  0.8305501373270825  0.6312353654896699  0.0190070177149367
  0.8933926305619802  0.6305229965832925  0.0134383772690533
  0.9481102342635628  0.6128159059302893  0.0155367110919334
  0.0323289597918057  0.6886592586833182  0.0191926819441733
  0.1126395406715433  0.6909945763352199  0.0225124566398521
  0.1800237175187019  0.6972825796347936  0.0177115913298499
  0.2462657240699887  0.6909441198445242  0.0147055189057624
  0.3112131696335221  0.6960861079382901  0.0198051792478482
  0.4023520680937342  0.7030125605028950  0.0147418040373581
  0.4672569635315237  0.6948123336236527  0.0165195471391671
  0.5418997808557764  0.7091385179076176  0.0248452665955341
  0.6021350698737660  0.6923389415485589  0.0226038084436405
  0.6763916360408668  0.7057067824143919  0.0194190719307099
  0.7537135813939940  0.7018039491403121  0.0189773158526677
  0.8280352016443135  0.6979270234185924  0.0218352976248326
  0.8924722867750478  0.7025683597809812  0.0192513357666862
  0.9595110147042437  0.6972817096461263  0.0169597793823127
  0.0405803657764188  0.7650538364447306  0.0148872068667678
  0.0978257859687133  0.7551686695688863  0.0208248354051677
  0.1684151411666634  0.7563781392016504  0.0234730061045596
  0.2393725626366637  0.7670422638726544  0.0149535644318073
  0.3128530741159607  0.7702129380905859  0.0131951075361728
  0.3827879381043489  0.7550605722249099  0.0154772083380516
  0.4619507324823785  0.7704816634736649  0.0172950147792648
  0.5358747754865493  0.7774930918892375  0.0198977141626796
  0.6071535271678251  0.7730642242422158  0.0133356104344552
  0.6652402511493158  0.7681174727709950  0.0216267591451450
  0.7550245084591751  0.7800418210213949  0.0185356326500777
  0.8246957925115744  0.7683521527540019  0.0174072358710354
  0.8883948436540229  0.7685208169225610  0.0192878606233902
  0.9667164252400129  0.7691685011285589  0.0182761619211558
  0.0339324331614768  0.8326743193673155  0.0183188246725252
  0.0986765316485857  0.8289113799960400  0.0192508668790434
  0.1788902901822333  0.8240066391722015  0.0217212184715688
  0.2426519472952490  0.8333631351880985  0.0241211617890618
  0.3078325511540084  0.8373680893049044  0.0258483283902596
  0.3807626664018718  0.8225668845116533  0.0185230618518301
  0.4505178178598325  0.8324295642734241  0.0194516451679999
  0.5294826756811042  0.8503523805283026  0.0199027422764628
  0.6085286213577999  0.8465627278819452  0.0071850057238521
  0.6746017341237432  0.8321660779533353  0.0126813015075258
  0.7535639317139676  0.8515576715756012  0.0128602805781910
  0.8383284497641699  0.8578593503843019  0.0175775192455523
  0.9011782063635516  0.8375341854604288  0.0185187157738064
  0.9755026306462592  0.8489454062510859  0.0196204604950551
  0.0426116956752819  0.9174061972968988  0.0151848134448564
  0.1078834811688317  0.9075556447262332  0.0139404939245816
  0.1810366776047608  0.9094105361172903  0.0238340660006711
  0.2316942260755807  0.8937381247390256  0.0235855182826212
  0.3135386931703675  0.9116808686745449  0.0278040726664557
  0.3796582400184533  0.8937192908867999  0.0197683568948120
  0.4525415282192079  0.9063104120793817  0.0171162921631702
  0.5214555515105569  0.9160292448785541  0.0136068456202512
  0.6036946450451472  0.9007453791865346  0.0167461146862924
  0.6915414545849934  0.9242433849413869  0.0089003524838824
  0.7589939024099965  0.9267717273275596  0.0128764302366042
  0.8263935912070403  0.9268049735788312  0.0144066698250667
  0.9063257131460415  0.9316522493829957  0.0179546641314964
  0.9636165149137501  0.9146853143023376  0.0115232279374546
  0.0312837281750055  0.9814958700827847  0.0176596425271586
  0.1101957561535269  0.9903023978843504  0.0177591223229670
  0.1705166169195071  0.9779151347558593  0.0177047125538795
  0.2380319122357102  0.9782564612456890  0.0201760662078037
  0.3061989795916489  0.9737327616003711  0.0207397532344696
  0.3783895127916866  0.9722808620996105  0.0219728607442729
  0.4521575984381455  0.9722149325550962  0.0192696158775857
  0.5315634839784441  0.9943623859344358  0.0157171329527712
  0.6125521815458118  0.9828980627972913  0.0185253245128969
  0.6823597677546591  0.9841895962432304  0.0120700147276308
  0.7565010677787521  0.9914685139322749  0.0122317956936536
  0.8228689887625941  0.9958509018687511  0.0192221745655541
  0.8876810946224765  0.9982983346574236  0.0212783629987790
  0.9688860786774124  0.9949885166993321  0.0130899550496397
  0.0506403853864406  0.0371822729382984  0.0418861987550849
  0.1382173723008011  0.0380231708968942  0.0438990476300174
  0.1995768755288999  0.0291233967935453  0.0430628814844511
  0.2677924087545198  0.0332347758726495  0.0484931693982191
  0.3342641097066106  0.0353823972591249  0.0410061048369325
  0.4103377664720765  0.0384557153227712  0.0427382299722265
  0.4838846706054324  0.0361903052082413  0.0439985648019497
  0.5583142707103439  0.0414017372606566  0.0445501292814376
  0.6217731403545117  0.0221203743589471  0.0468519018798285
  0.6860241694242901  0.0110644946357692  0.0403871783876787
  0.7884627327336761  0.0325785689772821  0.0408925413207896
  0.8555256118832579  0.0395585629106825  0.0432911235506080
  0.9114161362636327  0.0307743371577306  0.0497142387074344
  0.9777905523239623  0.0312393790969237  0.0409437296037586
  0.0489324988707780  0.1019563666188215  0.0435832171705848
  0.1222911064961428  0.1022642126702867  0.0425553395349216
  0.2164523611791931  0.1220015509693197  0.0491716312379880
  0.2784595789844953  0.1074492763903470  0.0472406876668365
  0.3459010858699192  0.1176523768529581  0.0439631314975607
  0.4111347531268142  0.1023774061157512  0.0434888168823618
  0.4810817096390123  0.1026476225061647  0.0404466797758297
  0.5614732716319112  0.1155633570831098  0.0451156651889847
  0.6337859065579192  0.0973559841387548  0.0417040752285641
  0.6996949863084218  0.0832054225295676  0.0444740080865763
  0.7588495217631909  0.0800988455651273  0.0367723263840366
  0.8373767441385311  0.1043778345445643  0.0423941787105529
  0.9113925744947635  0.1094007050034614  0.0505303721488806
  0.9810134397822514  0.1161620566964843  0.0420169122657363
  0.0574345885736330  0.1703299554410196  0.0462856783784495
  0.1193614612567859  0.1659208697407124  0.0479586142022250
  0.2086354075627451  0.1802302675811155  0.0423102490686170
  0.2922989584696382  0.1819049864251617  0.0444230314796968
  0.3537393727101790  0.1903623112853411  0.0450767365894794
  0.4193438395963165  0.1727560159531640  0.0477004399762995
  0.4934552304291955  0.1788055328640689  0.0449100750442524
  0.5515759497977257  0.1736633788334603  0.0433660301002178
  0.6414128434970252  0.1672836873694813  0.0398266900955147
  0.7092690629487763  0.1565257854852770  0.0425864970451607
  0.7712417344942935  0.1408894869112789  0.0478138763625925
  0.8466355593198250  0.1858666737747970  0.0497519465316827
  0.9088773304326324  0.1723691857671007  0.0471829667999731
  0.9892467651586500  0.1855018890015956  0.0443158882220717
  0.0682593844462879  0.2582955480835571  0.0435806308500210
  0.1368981427425956  0.2458613322818711  0.0501366780931222
  0.1976061972784462  0.2357760009108041  0.0490634705850746
  0.2822381661995491  0.2436168418454300  0.0478864443730095
  0.3493776697975793  0.2523300485119832  0.0461422949773932
  0.4272651367542898  0.2498309342914286  0.0445039952253252
  0.4926982303272215  0.2543798554466578  0.0391022550850005
  0.5622874614623955  0.2453588077329700  0.0487087329864693
  0.6242092897512889  0.2230067279800612  0.0456889494840987
  0.6966139298287635  0.2401665075804551  0.0455266837549533
  0.7519332261042793  0.2259862327179051  0.0447593747967333
  0.8298323031983252  0.2401904868906269  0.0454839875509701
  0.9100091921814528  0.2453639793415445  0.0445659439990691
  0.9795162014450420  0.2446108225105950  0.0395847571677374
  0.0604200802139927  0.3299515655616502  0.0417039416810586
  0.1392512405968739  0.3225431220201919  0.0414057505193880
  0.1940116965345292  0.3144707789025785  0.0491642213205544
  0.2634174351380992  0.3056520374722682  0.0461936792953957
  0.3433592799821341  0.3222392238317059  0.0469640799651068
  0.4118657728611749  0.3244947243152474  0.0494328384853989
  0.4883957673206577  0.3227836176103323  0.0447820218550418
  0.5623762683569004  0.3175645667911243  0.0437337232744481
  0.6462280502918464  0.3391914591067433  0.0445415761444159
  0.6867191012849786  0.3051831889456738  0.0424071495309391
  0.7612375436790225  0.3119007691277419  0.0483123728211669
  0.8289871641290729  0.3273550202892253  0.0458287219280294
  0.8966735412028034  0.3090926473247998  0.0443354293335482
  0.9811736060552260  0.3191053698727491  0.0464754798191313
  0.0382108863062200  0.3887481492351516  0.0404721008253448
  0.1282400484050704  0.3850698023867704  0.0457601144430613
  0.2024285746891843  0.3869782508739090  0.0487471779015440
  0.2758682034643814  0.3907252068526729  0.0479121527044058
  0.3474251573446951  0.3871387384696153  0.0487323477273936
  0.4166707318367734  0.3926866054619605  0.0444190644795053
  0.4774777496036083  0.3825344090198572  0.0394017539733699
  0.5603252160138441  0.3937355473187078  0.0413806689479562
  0.6379903733996322  0.4078253967234182  0.0398690961461126
  0.7033175629907036  0.4076528736749140  0.0510062500299936
  0.7541468814429052  0.3799574232440222  0.0419693619763499
  0.8266420512551668  0.3826321945869336  0.0478448755994657
  0.9049080805185225  0.3859283985403418  0.0465856801860897
  0.9720135498022022  0.3861962850424001  0.0443249603772431
  0.0482314694162829  0.4550483051506113  0.0448745658823793
  0.1112171958570868  0.4495990397193789  0.0499575173405750
  0.1939345562544456  0.4609478405731891  0.0474318384213810
  0.2814359205233930  0.4619687870246514  0.0513043054563526
  0.3408996442513739  0.4568301293814885  0.0434584274079421
  0.4121629215725744  0.4538706728891479  0.0427293736270582
  0.4794750611686190  0.4555481212107648  0.0454889911459377
  0.5489468299030377  0.4538206692737647  0.0466189811923509
  0.6284634899590655  0.4666750266127935  0.0451186006435688
  0.7008808046558509  0.4745157611038892  0.0372082986571376
  0.7686503499735561  0.4511751282577812  0.0405841234907167
  0.8350487320028575  0.4498641293191059  0.0459128921415437
  0.9028823882383534  0.4488218851476037  0.0545195489606974
  0.9732335837354932  0.4530627967028570  0.0455497301715049
  0.0560710549656824  0.5241191751935944  0.0493972279849550
  0.1155446443575472  0.5190423425700331  0.0466511988114753
  0.2109609455593217  0.5340353793268092  0.0497972169946707
  0.2782751618488312  0.5432667541858948  0.0536262077886907
  0.3379780685760600  0.5353159376704006  0.0478946666242612
  0.4164343508128197  0.5360274009450106  0.0416569873433162
  0.4843877646353411  0.5313220833773603  0.0472893288175506
  0.5474705476451951  0.5265826554146050  0.0406549231699931
  0.6245953001231334  0.5280721639302279  0.0505327461440357
  0.6888313043952226  0.5340259346499674  0.0385914569026902
  0.7726681938345580  0.5225252792933818  0.0431735315982032
  0.8494262502614156  0.5276264577629582  0.0453717261599167
  0.9109982604506812  0.5171825331825892  0.0453765783107495
  0.9802259397387382  0.5188381789789560  0.0474043501410282
  0.0422164558744527  0.5959983014321372  0.0527448623865886
  0.1260984065461600  0.5948812175661704  0.0507403513963735
  0.1887164394567274  0.5896699646458883  0.0434520107591608
  0.2780626285257629  0.6028131645400527  0.0438059618408811
  0.3402048567939451  0.6029632310700148  0.0443159488584818
  0.4100215967917363  0.6045455883044047  0.0447916404237016
  0.4814472598996835  0.6070353965651542  0.0444989833255035
  0.5543391103036377  0.5866664735814814  0.0477976633199696
  0.6304050858589179  0.5953906631772150  0.0428398735025578
  0.7066084816287359  0.6043586738562867  0.0485756936068357
  0.7688415610371270  0.5892246578119723  0.0429159009181182
  0.8459652976685468  0.6082820775743606  0.0478779045637576
  0.9063643114742514  0.5992361156982418  0.0463875688757541
  0.9704872713855700  0.5923360682145137  0.0415940323232410
  0.0498776694312475  0.6676596383464127  0.0489021506484444
  0.1322945970630856  0.6798636169568879  0.0499319396662607
  0.1914183780553215  0.6657526624740573  0.0453441048477084
  0.2619833016921583  0.6683339020915716  0.0480639475359591
  0.3526375368760877  0.6850675014999762  0.0431088938494493
  0.4218317008240700  0.6753355056108082  0.0468792492202690
  0.4874150732359990  0.6722657637457884  0.0458461595243173
  0.5557460190513056  0.6586736520653355  0.0471669733140604
  0.6272430419870600  0.6642458854617878  0.0471532622039777
  0.6998289825717232  0.6713260001236599  0.0471393002816853
  0.7655705933367283  0.6745072344217118  0.0460473090482139
  0.8366208166624660  0.6663589138536463  0.0477988718238207
  0.9119888136151589  0.6806248338180751  0.0444655396717781
  0.9729139338273838  0.6670020702993380  0.0446489864426672
  0.0345427553527918  0.7343888156422623  0.0467444353059115
  0.1220217803107720  0.7426802155852309  0.0481832311267844
  0.2090944727789754  0.7535872207427463  0.0474095776355276
  0.2664188526506109  0.7494255241677809  0.0412076689813873
  0.3463401197599196  0.7607086809053185  0.0419979464330423
  0.4126148024734690  0.7595322860334756  0.0439089961091004
  0.4770560191250574  0.7514990142186856  0.0443665553577381
  0.5492526384162948  0.7563648034502863  0.0474798071109249
  0.6041490017878294  0.7371864340407804  0.0466899071525340
  0.6880202609772189  0.7426782770169228  0.0461192845280694
  0.7699282782426997  0.7453826999135826  0.0422880460302652
  0.8337395021923485  0.7405943410331528  0.0463745553377454
  0.9160591431323883  0.7529540449513014  0.0489010225445483
  0.9812868059465215  0.7476677330772904  0.0448642531857992
  0.0485149230768882  0.8073558346599803  0.0446551449972470
  0.1179452327955905  0.8029123316836724  0.0476302398079893
  0.1946128484945311  0.8130807025288549  0.0507402761820142
  0.2731784613000877  0.8317705645439888  0.0546325466611186
  0.3378184453076707  0.8269817324229297  0.0503651419862387
  0.4123876189678934  0.8221545417742414  0.0479265255858859
  0.4783605790536439  0.8217690785851095  0.0478976449184344
  0.5461363926190828  0.8231425210693369  0.0468693208450212
  0.6214535515612627  0.8213953426606796  0.0416357012044325
  0.7038463350964724  0.8192732677466097  0.0412202682719309
  0.7689444927035111  0.8244067496187760  0.0420311904578785
  0.8400714841182917  0.8103684283187389  0.0440359318442207
  0.9192217869218491  0.8227917520747430  0.0453599982316179
  0.9831656169965240  0.8185945894701468  0.0486186206071709
  0.0530315832930461  0.8876139696147695  0.0429361816054224
  0.1204080740805456  0.8821684841865500  0.0451218753215958
  0.1895448310412502  0.8810404136522020  0.0540588256316105
  0.2612059711713880  0.8939214394203894  0.0482437058550573
  0.3410254021934670  0.8982969018462807  0.0495947031758474
  0.4119995669623817  0.8944406016921038  0.0451402018809342
  0.4793917082481907  0.8886435372711268  0.0432796812182260
  0.5495203361786695  0.8968200444369846  0.0403661201193659
  0.6308713072325380  0.8882352745313079  0.0409213857903087
  0.7001307699587380  0.8908250617104799  0.0349772581410398
  0.7750422889425812  0.8955562855269327  0.0416198285167456
  0.8469887832980212  0.9036640958617834  0.0412714197610152
  0.9069997769491053  0.8875918758028665  0.0443867868354929
  0.9780079661451068  0.8928531477852670  0.0450728844499944
  0.0520254464067975  0.9619125044370150  0.0421903698630106
  0.1239511463057409  0.9553042705598970  0.0459611117821266
  0.1904158642954392  0.9539886455402860  0.0469585418135458
  0.2585932255301966  0.9576066360655575  0.0499685855203134
  0.3421330962422465  0.9696079152874577  0.0462955989444628
  0.4064120951288961  0.9527513740535443  0.0464429318576705
  0.4868609473693161  0.9634368183861777  0.0424748006271473
  0.5479883459688661  0.9661054209544137  0.0417739962489306
  0.6166886089708196  0.9491805266854597  0.0446301956608951
  0.7021995416545775  0.9595414023481090  0.0435430337314568
  0.7686735727374367  0.9621881402580008  0.0451015083392269
  0.8324535096140429  0.9625890421115217  0.0454971889999865
  0.9031453958405927  0.9609517180188201  0.0474465531548940
  0.9790370022954437  0.9651560256164985  0.0446698548215411
  0.0244930054375089  0.0443219830527609  0.0724424158327169
  0.1104589251881858  0.0574594584501484  0.0693567221589836
  0.1757893548120357  0.0486530642416407  0.0689561572754927
  0.2414870868253015  0.0486288138572888  0.0719533201703561
  0.3189703535539503  0.0483544173234089  0.0733776355645199
  0.3853425064750827  0.0496667696603235  0.0701549009994673
  0.4541878707609284  0.0547403315309766  0.0745082199395761
  0.5210745350884443  0.0514028994909052  0.0727923241479878
  0.5948208653982646  0.0558696173232508  0.0687604172338664
  0.6669756616779833  0.0344609351831545  0.0700104814431487
  0.7411049210379940  0.0418995178042707  0.0646204016090551
  0.8092723122819085  0.0483196697943296  0.0725287928479478
  0.8850310635889596  0.0548633633800332  0.0745637897385041
  0.9600076884441986  0.0479629391102834  0.0744512411936272
  0.0348897253841564  0.1244324671511133  0.0722518909405738
  0.0903474235073968  0.1121596119718184  0.0743678172475998
  0.1761682773150459  0.1302576563242036  0.0683676770492761
  0.2445086860251385  0.1198066072090014  0.0735926523386678
  0.3153272936447397  0.1115006546817063  0.0739352468152652
  0.3857239952353607  0.1207986330008684  0.0717191323571221
  0.4696498375659389  0.1244949562042831  0.0686029582297580
  0.5415089457799304  0.1295891322680227  0.0741719864844152
  0.6041322502982198  0.1263290219114604  0.0732655974641723
  0.6722136934012612  0.1022031890288723  0.0719196804211115
  0.7344158707477302  0.0949581334697448  0.0742623773908559
  0.8247333556651709  0.1311435712303570  0.0693935325178207
  0.8844157202843638  0.1280464895008814  0.0738758975134196
  0.9718905649450437  0.1220157218512046  0.0730406548269042
  0.0253130597050313  0.1932768502823801  0.0744803431518679
  0.1091142891415635  0.1964899601317251  0.0746702561722128
  0.1717589067052241  0.1912916719542513  0.0735687065749570
  0.2551569904840179  0.1960604350986215  0.0709981863776777
  0.3233370527830313  0.1898562517236482  0.0736633060568267
  0.3904669252400788  0.1866241195666172  0.0731474783162833
  0.4546160585023949  0.1842922493208715  0.0754176466540711
  0.5428944186342579  0.1919140123503816  0.0753677009802076
  0.6249740881213525  0.1942941751773082  0.0728219589838893
  0.6836266173051205  0.1738297209248013  0.0690705019251336
  0.7484664875311896  0.1744789332547975  0.0718957305377886
  0.8219629290973055  0.1987953012797991  0.0741541073756402
  0.9008132564016744  0.2046453978425429  0.0729353085807085
  0.9622242970499745  0.1900959916809875  0.0706634231473692
  0.0415084402945328  0.2728062276412907  0.0697103903295108
  0.0883058181786200  0.2473356816531988  0.0763883151513221
  0.1756496579755571  0.2698135499222471  0.0767682801007903
  0.2383194854040321  0.2663031096524886  0.0732753315095097
  0.3247587307440024  0.2682055769960716  0.0732938277131764
  0.3909047626239598  0.2585783221537403  0.0699099688162975
  0.4566378314245543  0.2660236934917001  0.0786498456551613
  0.5198215362095441  0.2587533527809396  0.0699856055388537
  0.6146978453887886  0.2644376344501490  0.0674801145677161
  0.6818028267741889  0.2762772789615932  0.0713559944037110
  0.7409003962229220  0.2542929592883372  0.0713208273326504
  0.8088070733836453  0.2566005698552029  0.0742311639403884
  0.8880216498493628  0.2609352439046251  0.0718116385906385
  0.9649358492242479  0.2608399703072960  0.0676719439362159
  0.0283672743920503  0.3469208386383928  0.0685454777978265
  0.1059849024964762  0.3394000835109761  0.0732525034865254
  0.1658033066042874  0.3301298546212116  0.0746406906238474
  0.2431339254708925  0.3392262614264902  0.0746103177796260
  0.3126032304330369  0.3404223682027275  0.0706386367556679
  0.3750063499390836  0.3335307008880147  0.0790129897380906
  0.4496648123962613  0.3329151878372639  0.0761587799480761
  0.5279142345445070  0.3262021348262276  0.0719830090433566
  0.5950333366688176  0.3215189809580234  0.0699347644419889
  0.6878845013887247  0.3460167276771671  0.0679547933933748
  0.7405166026685465  0.3352724332769136  0.0802217664017188
  0.8020164473243070  0.3271359032431943  0.0720329966584042
  0.8743946462348762  0.3308795027398804  0.0709289783895960
  0.9522829970969032  0.3358995957548155  0.0707702092431844
  0.0198883422878128  0.4110430415559224  0.0717578558985379
  0.0986858716877632  0.4053308615496723  0.0723411003184680
  0.1748950478608508  0.4038246957433113  0.0713367135250625
  0.2435844154783240  0.4091852676869281  0.0761467411544803
  0.3232776970231945  0.4202793103300346  0.0730353148010629
  0.3882443530632769  0.4067622982575407  0.0748031337092769
  0.4534722712316377  0.3998637940922068  0.0708519175544252
  0.5175393316308499  0.3916927499517783  0.0695408109783981
  0.5984847942864725  0.4036942059519390  0.0680996054308120
  0.6679547588565234  0.4070960980713642  0.0766829603646683
  0.7446835717570091  0.4054963578396094  0.0764065810978782
  0.8079714072032071  0.4021597389400559  0.0736583649183521
  0.8755096732542238  0.3989305589672900  0.0768899855553394
  0.9435102606277538  0.3968427843871950  0.0751319803275542
  0.0228537382069597  0.4772050500153983  0.0720836316630867
  0.0976481123760305  0.4804698145669511  0.0747207488891363
  0.1724028371382501  0.4791179297570612  0.0717734247235877
  0.2358341999198001  0.4789051121822083  0.0725850573896991
  0.3088234268538876  0.4788014501941549  0.0756942439461157
  0.3890980840657808  0.4860954356596032  0.0669216369791343
  0.4519878011884699  0.4795461451924738  0.0700686701408302
  0.5223041560200474  0.4676541901778845  0.0734709052146119
  0.6133653649112314  0.4809539456053687  0.0742623716239288
  0.6791583945118402  0.4776297040348719  0.0699406501656828
  0.7388744214486316  0.4692539727142057  0.0707526323565611