super cell
     -166627.42892234065
  22.204163004055424 -38.458738462565194   0.000000000000000
  22.204163004055424  38.458738462565194   0.000000000000000
   0.000000000000000   0.000000000000000   95.00968819999998                   # 92.541688199999996
 7056
 Direct
   0.023809523809524   0.047619047619048   0.013888888888889
   0.095238095238095   0.047619047619048   0.013888888888889
   0.166666666666667   0.047619047619048   0.013888888888889
   0.238095238095238   0.047619047619048   0.013888888888889
   0.309523809523809   0.047619047619048   0.013888888888889
   0.380952380952381   0.047619047619048   0.013888888888889
   0.452380952380952   0.047619047619048   0.013888888888889
   0.523809523809524   0.047619047619048   0.013888888888889
   0.595238095238095   0.047619047619048   0.013888888888889
   0.666666666666667   0.047619047619048   0.013888888888889
   0.738095238095238   0.047619047619048   0.013888888888889
   0.809523809523810   0.047619047619048   0.013888888888889
   0.880952380952381   0.047619047619048   0.013888888888889
   0.952380952380952   0.047619047619048   0.013888888888889
   0.023809523809524   0.119047619047619   0.013888888888889
   0.095238095238095   0.119047619047619   0.013888888888889
   0.166666666666667   0.119047619047619   0.013888888888889
   0.238095238095238   0.119047619047619   0.013888888888889
   0.309523809523809   0.119047619047619   0.013888888888889
   0.380952380952381   0.119047619047619   0.013888888888889
   0.452380952380952   0.119047619047619   0.013888888888889
   0.523809523809524   0.119047619047619   0.013888888888889
   0.595238095238095   0.119047619047619   0.013888888888889
   0.666666666666667   0.119047619047619   0.013888888888889
   0.738095238095238   0.119047619047619   0.013888888888889
   0.809523809523810   0.119047619047619   0.013888888888889
   0.880952380952381   0.119047619047619   0.013888888888889
   0.952380952380952   0.119047619047619   0.013888888888889
   0.023809523809524   0.190476190476190   0.013888888888889
   0.095238095238095   0.190476190476190   0.013888888888889
   0.166666666666667   0.190476190476190   0.013888888888889
   0.238095238095238   0.190476190476190   0.013888888888889
   0.309523809523809   0.190476190476190   0.013888888888889
   0.380952380952381   0.190476190476190   0.013888888888889
   0.452380952380952   0.190476190476190   0.013888888888889
   0.523809523809524   0.190476190476190   0.013888888888889
   0.595238095238095   0.190476190476190   0.013888888888889
   0.666666666666667   0.190476190476190   0.013888888888889
   0.738095238095238   0.190476190476190   0.013888888888889
   0.809523809523810   0.190476190476190   0.013888888888889
   0.880952380952381   0.190476190476190   0.013888888888889
   0.952380952380952   0.190476190476190   0.013888888888889
   0.023809523809524   0.261904761904762   0.013888888888889
   0.095238095238095   0.261904761904762   0.013888888888889
   0.166666666666667   0.261904761904762   0.013888888888889
   0.238095238095238   0.261904761904762   0.013888888888889
   0.309523809523809   0.261904761904762   0.013888888888889
   0.380952380952381   0.261904761904762   0.013888888888889
   0.452380952380952   0.261904761904762   0.013888888888889
   0.523809523809524   0.261904761904762   0.013888888888889
   0.595238095238095   0.261904761904762   0.013888888888889
   0.666666666666667   0.261904761904762   0.013888888888889
   0.738095238095238   0.261904761904762   0.013888888888889
   0.809523809523810   0.261904761904762   0.013888888888889
   0.880952380952381   0.261904761904762   0.013888888888889
   0.952380952380952   0.261904761904762   0.013888888888889
   0.023809523809524   0.333333333333333   0.013888888888889
   0.095238095238095   0.333333333333333   0.013888888888889
   0.166666666666667   0.333333333333333   0.013888888888889
   0.238095238095238   0.333333333333333   0.013888888888889
   0.309523809523809   0.333333333333333   0.013888888888889
   0.380952380952381   0.333333333333333   0.013888888888889
   0.452380952380952   0.333333333333333   0.013888888888889
   0.523809523809524   0.333333333333333   0.013888888888889
   0.595238095238095   0.333333333333333   0.013888888888889
   0.666666666666667   0.333333333333333   0.013888888888889
   0.738095238095238   0.333333333333333   0.013888888888889
   0.809523809523810   0.333333333333333   0.013888888888889
   0.880952380952381   0.333333333333333   0.013888888888889
   0.952380952380952   0.333333333333333   0.013888888888889
   0.023809523809524   0.404761904761905   0.013888888888889
   0.095238095238095   0.404761904761905   0.013888888888889
   0.166666666666667   0.404761904761905   0.013888888888889
   0.238095238095238   0.404761904761905   0.013888888888889
   0.309523809523809   0.404761904761905   0.013888888888889
   0.380952380952381   0.404761904761905   0.013888888888889
   0.452380952380952   0.404761904761905   0.013888888888889
   0.523809523809524   0.404761904761905   0.013888888888889
   0.595238095238095   0.404761904761905   0.013888888888889
   0.666666666666667   0.404761904761905   0.013888888888889
   0.738095238095238   0.404761904761905   0.013888888888889
   0.809523809523810   0.404761904761905   0.013888888888889
   0.880952380952381   0.404761904761905   0.013888888888889
   0.952380952380952   0.404761904761905   0.013888888888889
   0.023809523809524   0.476190476190476   0.013888888888889
   0.095238095238095   0.476190476190476   0.013888888888889
   0.166666666666667   0.476190476190476   0.013888888888889
   0.238095238095238   0.476190476190476   0.013888888888889
   0.309523809523809   0.476190476190476   0.013888888888889
   0.380952380952381   0.476190476190476   0.013888888888889
   0.452380952380952   0.476190476190476   0.013888888888889
   0.523809523809524   0.476190476190476   0.013888888888889
   0.595238095238095   0.476190476190476   0.013888888888889
   0.666666666666667   0.476190476190476   0.013888888888889
   0.738095238095238   0.476190476190476   0.013888888888889
   0.809523809523810   0.476190476190476   0.013888888888889
   0.880952380952381   0.476190476190476   0.013888888888889
   0.952380952380952   0.476190476190476   0.013888888888889
   0.023809523809524   0.547619047619048   0.013888888888889
   0.095238095238095   0.547619047619048   0.013888888888889
   0.166666666666667   0.547619047619048   0.013888888888889
   0.238095238095238   0.547619047619048   0.013888888888889
   0.309523809523809   0.547619047619048   0.013888888888889
   0.380952380952381   0.547619047619048   0.013888888888889
   0.452380952380952   0.547619047619048   0.013888888888889
   0.523809523809524   0.547619047619048   0.013888888888889
   0.595238095238095   0.547619047619048   0.013888888888889
   0.666666666666667   0.547619047619048   0.013888888888889
   0.738095238095238   0.547619047619048   0.013888888888889
   0.809523809523810   0.547619047619048   0.013888888888889
   0.880952380952381   0.547619047619048   0.013888888888889
   0.952380952380952   0.547619047619048   0.013888888888889
   0.023809523809524   0.619047619047619   0.013888888888889
   0.095238095238095   0.619047619047619   0.013888888888889
   0.166666666666667   0.619047619047619   0.013888888888889
   0.238095238095238   0.619047619047619   0.013888888888889
   0.309523809523809   0.619047619047619   0.013888888888889
   0.380952380952381   0.619047619047619   0.013888888888889
   0.452380952380952   0.619047619047619   0.013888888888889
   0.523809523809524   0.619047619047619   0.013888888888889
   0.595238095238095   0.619047619047619   0.013888888888889
   0.666666666666667   0.619047619047619   0.013888888888889
   0.738095238095238   0.619047619047619   0.013888888888889
   0.809523809523810   0.619047619047619   0.013888888888889
   0.880952380952381   0.619047619047619   0.013888888888889
   0.952380952380952   0.619047619047619   0.013888888888889
   0.023809523809524   0.690476190476190   0.013888888888889
   0.095238095238095   0.690476190476190   0.013888888888889
   0.166666666666667   0.690476190476190   0.013888888888889
   0.238095238095238   0.690476190476190   0.013888888888889
   0.309523809523809   0.690476190476190   0.013888888888889
   0.380952380952381   0.690476190476190   0.013888888888889
   0.452380952380952   0.690476190476190   0.013888888888889
   0.523809523809524   0.690476190476190   0.013888888888889
   0.595238095238095   0.690476190476190   0.013888888888889
   0.666666666666667   0.690476190476190   0.013888888888889
   0.738095238095238   0.690476190476190   0.013888888888889
   0.809523809523810   0.690476190476190   0.013888888888889
   0.880952380952381   0.690476190476190   0.013888888888889
   0.952380952380952   0.690476190476190   0.013888888888889
   0.023809523809524   0.761904761904762   0.013888888888889
   0.095238095238095   0.761904761904762   0.013888888888889
   0.166666666666667   0.761904761904762   0.013888888888889
   0.238095238095238   0.761904761904762   0.013888888888889
   0.309523809523809   0.761904761904762   0.013888888888889
   0.380952380952381   0.761904761904762   0.013888888888889
   0.452380952380952   0.761904761904762   0.013888888888889
   0.523809523809524   0.761904761904762   0.013888888888889
   0.595238095238095   0.761904761904762   0.013888888888889
   0.666666666666667   0.761904761904762   0.013888888888889
   0.738095238095238   0.761904761904762   0.013888888888889
   0.809523809523810   0.761904761904762   0.013888888888889
   0.880952380952381   0.761904761904762   0.013888888888889
   0.952380952380952   0.761904761904762   0.013888888888889
   0.023809523809524   0.833333333333333   0.013888888888889
   0.095238095238095   0.833333333333333   0.013888888888889
   0.166666666666667   0.833333333333333   0.013888888888889
   0.238095238095238   0.833333333333333   0.013888888888889
   0.309523809523809   0.833333333333333   0.013888888888889
   0.380952380952381   0.833333333333333   0.013888888888889
   0.452380952380952   0.833333333333333   0.013888888888889
   0.523809523809524   0.833333333333333   0.013888888888889
   0.595238095238095   0.833333333333333   0.013888888888889
   0.666666666666667   0.833333333333333   0.013888888888889
   0.738095238095238   0.833333333333333   0.013888888888889
   0.809523809523810   0.833333333333333   0.013888888888889
   0.880952380952381   0.833333333333333   0.013888888888889
   0.952380952380952   0.833333333333333   0.013888888888889
   0.023809523809524   0.904761904761905   0.013888888888889
   0.095238095238095   0.904761904761905   0.013888888888889
   0.166666666666667   0.904761904761905   0.013888888888889
   0.238095238095238   0.904761904761905   0.013888888888889
   0.309523809523809   0.904761904761905   0.013888888888889
   0.380952380952381   0.904761904761905   0.013888888888889
   0.452380952380952   0.904761904761905   0.013888888888889
   0.523809523809524   0.904761904761905   0.013888888888889
   0.595238095238095   0.904761904761905   0.013888888888889
   0.666666666666667   0.904761904761905   0.013888888888889
   0.738095238095238   0.904761904761905   0.013888888888889
   0.809523809523810   0.904761904761905   0.013888888888889
   0.880952380952381   0.904761904761905   0.013888888888889
   0.952380952380952   0.904761904761905   0.013888888888889
   0.023809523809524   0.976190476190476   0.013888888888889
   0.095238095238095   0.976190476190476   0.013888888888889
   0.166666666666667   0.976190476190476   0.013888888888889
   0.238095238095238   0.976190476190476   0.013888888888889
   0.309523809523809   0.976190476190476   0.013888888888889
   0.380952380952381   0.976190476190476   0.013888888888889
   0.452380952380952   0.976190476190476   0.013888888888889
   0.523809523809524   0.976190476190476   0.013888888888889
   0.595238095238095   0.976190476190476   0.013888888888889
   0.666666666666667   0.976190476190476   0.013888888888889
   0.738095238095238   0.976190476190476   0.013888888888889
   0.809523809523810   0.976190476190476   0.013888888888889
   0.880952380952381   0.976190476190476   0.013888888888889
   0.952380952380952   0.976190476190476   0.013888888888889
   0.047619047619048   0.023809523809524   0.041666666666667
   0.119047619047619   0.023809523809524   0.041666666666667
   0.190476190476190   0.023809523809524   0.041666666666667
   0.261904761904762   0.023809523809524   0.041666666666667
   0.333333333333333   0.023809523809524   0.041666666666667
   0.404761904761905   0.023809523809524   0.041666666666667
   0.476190476190476   0.023809523809524   0.041666666666667
   0.547619047619048   0.023809523809524   0.041666666666667
   0.619047619047619   0.023809523809524   0.041666666666667
   0.690476190476190   0.023809523809524   0.041666666666667
   0.761904761904762   0.023809523809524   0.041666666666667
   0.833333333333333   0.023809523809524   0.041666666666667
   0.904761904761905   0.023809523809524   0.041666666666667
   0.976190476190476   0.023809523809524   0.041666666666667
   0.047619047619048   0.095238095238095   0.041666666666667
   0.119047619047619   0.095238095238095   0.041666666666667
   0.190476190476190   0.095238095238095   0.041666666666667
   0.261904761904762   0.095238095238095   0.041666666666667
   0.333333333333333   0.095238095238095   0.041666666666667
   0.404761904761905   0.095238095238095   0.041666666666667
   0.476190476190476   0.095238095238095   0.041666666666667
   0.547619047619048   0.095238095238095   0.041666666666667
   0.619047619047619   0.095238095238095   0.041666666666667
   0.690476190476190   0.095238095238095   0.041666666666667
   0.761904761904762   0.095238095238095   0.041666666666667
   0.833333333333333   0.095238095238095   0.041666666666667
   0.904761904761905   0.095238095238095   0.041666666666667
   0.976190476190476   0.095238095238095   0.041666666666667
   0.047619047619048   0.166666666666667   0.041666666666667
   0.119047619047619   0.166666666666667   0.041666666666667
   0.190476190476190   0.166666666666667   0.041666666666667
   0.261904761904762   0.166666666666667   0.041666666666667
   0.333333333333333   0.166666666666667   0.041666666666667
   0.404761904761905   0.166666666666667   0.041666666666667
   0.476190476190476   0.166666666666667   0.041666666666667
   0.547619047619048   0.166666666666667   0.041666666666667
   0.619047619047619   0.166666666666667   0.041666666666667
   0.690476190476190   0.166666666666667   0.041666666666667
   0.761904761904762   0.166666666666667   0.041666666666667
   0.833333333333333   0.166666666666667   0.041666666666667
   0.904761904761905   0.166666666666667   0.041666666666667
   0.976190476190476   0.166666666666667   0.041666666666667
   0.047619047619048   0.238095238095238   0.041666666666667
   0.119047619047619   0.238095238095238   0.041666666666667
   0.190476190476190   0.238095238095238   0.041666666666667
   0.261904761904762   0.238095238095238   0.041666666666667
   0.333333333333333   0.238095238095238   0.041666666666667
   0.404761904761905   0.238095238095238   0.041666666666667
   0.476190476190476   0.238095238095238   0.041666666666667
   0.547619047619048   0.238095238095238   0.041666666666667
   0.619047619047619   0.238095238095238   0.041666666666667
   0.690476190476190   0.238095238095238   0.041666666666667
   0.761904761904762   0.238095238095238   0.041666666666667
   0.833333333333333   0.238095238095238   0.041666666666667
   0.904761904761905   0.238095238095238   0.041666666666667
   0.976190476190476   0.238095238095238   0.041666666666667
   0.047619047619048   0.309523809523809   0.041666666666667
   0.119047619047619   0.309523809523809   0.041666666666667
   0.190476190476190   0.309523809523809   0.041666666666667
   0.261904761904762   0.309523809523809   0.041666666666667
   0.333333333333333   0.309523809523809   0.041666666666667
   0.404761904761905   0.309523809523809   0.041666666666667
   0.476190476190476   0.309523809523809   0.041666666666667
   0.547619047619048   0.309523809523809   0.041666666666667
   0.619047619047619   0.309523809523809   0.041666666666667
   0.690476190476190   0.309523809523809   0.041666666666667
   0.761904761904762   0.309523809523809   0.041666666666667
   0.833333333333333   0.309523809523809   0.041666666666667
   0.904761904761905   0.309523809523809   0.041666666666667
   0.976190476190476   0.309523809523809   0.041666666666667
   0.047619047619048   0.380952380952381   0.041666666666667
   0.119047619047619   0.380952380952381   0.041666666666667
   0.190476190476190   0.380952380952381   0.041666666666667
   0.261904761904762   0.380952380952381   0.041666666666667
   0.333333333333333   0.380952380952381   0.041666666666667
   0.404761904761905   0.380952380952381   0.041666666666667
   0.476190476190476   0.380952380952381   0.041666666666667
   0.547619047619048   0.380952380952381   0.041666666666667
   0.619047619047619   0.380952380952381   0.041666666666667
   0.690476190476190   0.380952380952381   0.041666666666667
   0.761904761904762   0.380952380952381   0.041666666666667
   0.833333333333333   0.380952380952381   0.041666666666667
   0.904761904761905   0.380952380952381   0.041666666666667
   0.976190476190476   0.380952380952381   0.041666666666667
   0.047619047619048   0.452380952380952   0.041666666666667
   0.119047619047619   0.452380952380952   0.041666666666667
   0.190476190476190   0.452380952380952   0.041666666666667
   0.261904761904762   0.452380952380952   0.041666666666667
   0.333333333333333   0.452380952380952   0.041666666666667
   0.404761904761905   0.452380952380952   0.041666666666667
   0.476190476190476   0.452380952380952   0.041666666666667
   0.547619047619048   0.452380952380952   0.041666666666667
   0.619047619047619   0.452380952380952   0.041666666666667
   0.690476190476190   0.452380952380952   0.041666666666667
   0.761904761904762   0.452380952380952   0.041666666666667
   0.833333333333333   0.452380952380952   0.041666666666667
   0.904761904761905   0.452380952380952   0.041666666666667
   0.976190476190476   0.452380952380952   0.041666666666667
   0.047619047619048   0.523809523809524   0.041666666666667
   0.119047619047619   0.523809523809524   0.041666666666667
   0.190476190476190   0.523809523809524   0.041666666666667
   0.261904761904762   0.523809523809524   0.041666666666667
   0.333333333333333   0.523809523809524   0.041666666666667
   0.404761904761905   0.523809523809524   0.041666666666667
   0.476190476190476   0.523809523809524   0.041666666666667
   0.547619047619048   0.523809523809524   0.041666666666667
   0.619047619047619   0.523809523809524   0.041666666666667
   0.690476190476190   0.523809523809524   0.041666666666667
   0.761904761904762   0.523809523809524   0.041666666666667
   0.833333333333333   0.523809523809524   0.041666666666667
   0.904761904761905   0.523809523809524   0.041666666666667
   0.976190476190476   0.523809523809524   0.041666666666667
   0.047619047619048   0.595238095238095   0.041666666666667
   0.119047619047619   0.595238095238095   0.041666666666667
   0.190476190476190   0.595238095238095   0.041666666666667
   0.261904761904762   0.595238095238095   0.041666666666667
   0.333333333333333   0.595238095238095   0.041666666666667
   0.404761904761905   0.595238095238095   0.041666666666667
   0.476190476190476   0.595238095238095   0.041666666666667
   0.547619047619048   0.595238095238095   0.041666666666667
   0.619047619047619   0.595238095238095   0.041666666666667
   0.690476190476190   0.595238095238095   0.041666666666667
   0.761904761904762   0.595238095238095   0.041666666666667
   0.833333333333333   0.595238095238095   0.041666666666667
   0.904761904761905   0.595238095238095   0.041666666666667
   0.976190476190476   0.595238095238095   0.041666666666667
   0.047619047619048   0.666666666666667   0.041666666666667
   0.119047619047619   0.666666666666667   0.041666666666667
   0.190476190476190   0.666666666666667   0.041666666666667
   0.261904761904762   0.666666666666667   0.041666666666667
   0.333333333333333   0.666666666666667   0.041666666666667
   0.404761904761905   0.666666666666667   0.041666666666667
   0.476190476190476   0.666666666666667   0.041666666666667
   0.547619047619048   0.666666666666667   0.041666666666667
   0.619047619047619   0.666666666666667   0.041666666666667
   0.690476190476190   0.666666666666667   0.041666666666667
   0.761904761904762   0.666666666666667   0.041666666666667
   0.833333333333333   0.666666666666667   0.041666666666667
   0.904761904761905   0.666666666666667   0.041666666666667
   0.976190476190476   0.666666666666667   0.041666666666667
   0.047619047619048   0.738095238095238   0.041666666666667
   0.119047619047619   0.738095238095238   0.041666666666667
   0.190476190476190   0.738095238095238   0.041666666666667
   0.261904761904762   0.738095238095238   0.041666666666667
   0.333333333333333   0.738095238095238   0.041666666666667
   0.404761904761905   0.738095238095238   0.041666666666667
   0.476190476190476   0.738095238095238   0.041666666666667
   0.547619047619048   0.738095238095238   0.041666666666667
   0.619047619047619   0.738095238095238   0.041666666666667
   0.690476190476190   0.738095238095238   0.041666666666667
   0.761904761904762   0.738095238095238   0.041666666666667
   0.833333333333333   0.738095238095238   0.041666666666667
   0.904761904761905   0.738095238095238   0.041666666666667
   0.976190476190476   0.738095238095238   0.041666666666667
   0.047619047619048   0.809523809523810   0.041666666666667
   0.119047619047619   0.809523809523810   0.041666666666667
   0.190476190476190   0.809523809523810   0.041666666666667
   0.261904761904762   0.809523809523810   0.041666666666667
   0.333333333333333   0.809523809523810   0.041666666666667
   0.404761904761905   0.809523809523810   0.041666666666667
   0.476190476190476   0.809523809523810   0.041666666666667
   0.547619047619048   0.809523809523810   0.041666666666667
   0.619047619047619   0.809523809523810   0.041666666666667
   0.690476190476190   0.809523809523810   0.041666666666667
   0.761904761904762   0.809523809523810   0.041666666666667
   0.833333333333333   0.809523809523810   0.041666666666667
   0.904761904761905   0.809523809523810   0.041666666666667
   0.976190476190476   0.809523809523810   0.041666666666667
   0.047619047619048   0.880952380952381   0.041666666666667
   0.119047619047619   0.880952380952381   0.041666666666667
   0.190476190476190   0.880952380952381   0.041666666666667
   0.261904761904762   0.880952380952381   0.041666666666667
   0.333333333333333   0.880952380952381   0.041666666666667
   0.404761904761905   0.880952380952381   0.041666666666667
   0.476190476190476   0.880952380952381   0.041666666666667
   0.547619047619048   0.880952380952381   0.041666666666667
   0.619047619047619   0.880952380952381   0.041666666666667
   0.690476190476190   0.880952380952381   0.041666666666667
   0.761904761904762   0.880952380952381   0.041666666666667
   0.833333333333333   0.880952380952381   0.041666666666667
   0.904761904761905   0.880952380952381   0.041666666666667
   0.976190476190476   0.880952380952381   0.041666666666667
   0.047619047619048   0.952380952380952   0.041666666666667
   0.119047619047619   0.952380952380952   0.041666666666667
   0.190476190476190   0.952380952380952   0.041666666666667
   0.261904761904762   0.952380952380952   0.041666666666667
   0.333333333333333   0.952380952380952   0.041666666666667
   0.404761904761905   0.952380952380952   0.041666666666667
   0.476190476190476   0.952380952380952   0.041666666666667
   0.547619047619048   0.952380952380952   0.041666666666667
   0.619047619047619   0.952380952380952   0.041666666666667
   0.690476190476190   0.952380952380952   0.041666666666667
   0.761904761904762   0.952380952380952   0.041666666666667
   0.833333333333333   0.952380952380952   0.041666666666667
   0.904761904761905   0.952380952380952   0.041666666666667
   0.976190476190476   0.952380952380952   0.041666666666667
   0.023809523809524   0.047619047619048   0.069444444444444
   0.095238095238095   0.047619047619048   0.069444444444444
   0.166666666666667   0.047619047619048   0.069444444444444
   0.238095238095238   0.047619047619048   0.069444444444444
   0.309523809523809   0.047619047619048   0.069444444444444
   0.380952380952381   0.047619047619048   0.069444444444444
   0.452380952380952   0.047619047619048   0.069444444444444
   0.523809523809524   0.047619047619048   0.069444444444444
   0.595238095238095   0.047619047619048   0.069444444444444
   0.666666666666667   0.047619047619048   0.069444444444444
   0.738095238095238   0.047619047619048   0.069444444444444
   0.809523809523810   0.047619047619048   0.069444444444444
   0.880952380952381   0.047619047619048   0.069444444444444
   0.952380952380952   0.047619047619048   0.069444444444444
   0.023809523809524   0.119047619047619   0.069444444444444
   0.095238095238095   0.119047619047619   0.069444444444444
   0.166666666666667   0.119047619047619   0.069444444444444
   0.238095238095238   0.119047619047619   0.069444444444444
   0.309523809523809   0.119047619047619   0.069444444444444
   0.380952380952381   0.119047619047619   0.069444444444444
   0.452380952380952   0.119047619047619   0.069444444444444
   0.523809523809524   0.119047619047619   0.069444444444444
   0.595238095238095   0.119047619047619   0.069444444444444
   0.666666666666667   0.119047619047619   0.069444444444444
   0.738095238095238   0.119047619047619   0.069444444444444
   0.809523809523810   0.119047619047619   0.069444444444444
   0.880952380952381   0.119047619047619   0.069444444444444
   0.952380952380952   0.119047619047619   0.069444444444444
   0.023809523809524   0.190476190476190   0.069444444444444
   0.095238095238095   0.190476190476190   0.069444444444444
   0.166666666666667   0.190476190476190   0.069444444444444
   0.238095238095238   0.190476190476190   0.069444444444444
   0.309523809523809   0.190476190476190   0.069444444444444
   0.380952380952381   0.190476190476190   0.069444444444444
   0.452380952380952   0.190476190476190   0.069444444444444
   0.523809523809524   0.190476190476190   0.069444444444444
   0.595238095238095   0.190476190476190   0.069444444444444
   0.666666666666667   0.190476190476190   0.069444444444444
   0.738095238095238   0.190476190476190   0.069444444444444
   0.809523809523810   0.190476190476190   0.069444444444444
   0.880952380952381   0.190476190476190   0.069444444444444
   0.952380952380952   0.190476190476190   0.069444444444444
   0.023809523809524   0.261904761904762   0.069444444444444
   0.095238095238095   0.261904761904762   0.069444444444444
   0.166666666666667   0.261904761904762   0.069444444444444
   0.238095238095238   0.261904761904762   0.069444444444444
   0.309523809523809   0.261904761904762   0.069444444444444
   0.380952380952381   0.261904761904762   0.069444444444444
   0.452380952380952   0.261904761904762   0.069444444444444
   0.523809523809524   0.261904761904762   0.069444444444444
   0.595238095238095   0.261904761904762   0.069444444444444
   0.666666666666667   0.261904761904762   0.069444444444444
   0.738095238095238   0.261904761904762   0.069444444444444
   0.809523809523810   0.261904761904762   0.069444444444444
   0.880952380952381   0.261904761904762   0.069444444444444
   0.952380952380952   0.261904761904762   0.069444444444444
   0.023809523809524   0.333333333333333   0.069444444444444
   0.095238095238095   0.333333333333333   0.069444444444444
   0.166666666666667   0.333333333333333   0.069444444444444
   0.238095238095238   0.333333333333333   0.069444444444444
   0.309523809523809   0.333333333333333   0.069444444444444
   0.380952380952381   0.333333333333333   0.069444444444444
   0.452380952380952   0.333333333333333   0.069444444444444
   0.523809523809524   0.333333333333333   0.069444444444444
   0.595238095238095   0.333333333333333   0.069444444444444
   0.666666666666667   0.333333333333333   0.069444444444444
   0.738095238095238   0.333333333333333   0.069444444444444
   0.809523809523810   0.333333333333333   0.069444444444444
   0.880952380952381   0.333333333333333   0.069444444444444
   0.952380952380952   0.333333333333333   0.069444444444444
   0.023809523809524   0.404761904761905   0.069444444444444
   0.095238095238095   0.404761904761905   0.069444444444444
   0.166666666666667   0.404761904761905   0.069444444444444
   0.238095238095238   0.404761904761905   0.069444444444444
   0.309523809523809   0.404761904761905   0.069444444444444
   0.380952380952381   0.404761904761905   0.069444444444444
   0.452380952380952   0.404761904761905   0.069444444444444
   0.523809523809524   0.404761904761905   0.069444444444444
   0.595238095238095   0.404761904761905   0.069444444444444
   0.666666666666667   0.404761904761905   0.069444444444444
   0.738095238095238   0.404761904761905   0.069444444444444
   0.809523809523810   0.404761904761905   0.069444444444444
   0.880952380952381   0.404761904761905   0.069444444444444
   0.952380952380952   0.404761904761905   0.069444444444444
   0.023809523809524   0.476190476190476   0.069444444444444
   0.095238095238095   0.476190476190476   0.069444444444444
   0.166666666666667   0.476190476190476   0.069444444444444
   0.238095238095238   0.476190476190476   0.069444444444444
   0.309523809523809   0.476190476190476   0.069444444444444
   0.380952380952381   0.476190476190476   0.069444444444444
   0.452380952380952   0.476190476190476   0.069444444444444
   0.523809523809524   0.476190476190476   0.069444444444444
   0.595238095238095   0.476190476190476   0.069444444444444
   0.666666666666667   0.476190476190476   0.069444444444444
   0.738095238095238   0.476190476190476   0.069444444444444