super cell                              
   1.0364787038948182     
     9.5160698588808970  -16.4823164839565095    0.0000000000000000
     9.5160698588808970   16.4823164839565095    0.0000000000000000
     0.0000000000000000    0.0000000000000000   31.6698960700000036
     432
Direct
  0.0302307107745342  0.0943518769882424  0.0434968671306322
  0.2175568208544969  0.0880185603267083  0.0462648800100539
  0.3842926776329206  0.0928870591333936  0.0403189062703053
  0.5520121418502992  0.0976305000076791  0.0249665430429847
  0.7215784518247046  0.1066817023251008  0.0463067315124495
  0.8841991628624912  0.0954998834155008  0.0462050055148706
  0.0566334016851220  0.2671076857088880  0.0531617447978538
  0.2217821500620271  0.2661940414656914  0.0418256801235595
  0.4035915401511104  0.2654126923062910  0.0383022043858046
  0.5826029897286246  0.2740442513870484  0.0385698201916672
  0.7436701690078048  0.2975736855265635  0.0553997002003909
  0.8978438872286507  0.2486945592050052  0.0562820904510653
  0.0558659029164014  0.4219807875110027  0.0535967037247238
  0.2302330807429422  0.4311662890834296  0.0364470447973757
  0.3894527359478782  0.4278285526645227  0.0458153282501034
  0.5452821353368705  0.4263603487137902  0.0417343820993057
  0.7184709905129489  0.4321609556356441  0.0528558102235332
  0.9107411932301193  0.4486395143099285  0.0444194078756588
  0.0580775030780538  0.6165535966019569  0.0413122697608600
  0.1960285388611581  0.5946437028034210  0.0492677443511930
  0.3686134392135136  0.5944003496790682  0.0477631796208154
  0.5469946115317800  0.5915018293463610  0.0592443915406828
  0.6921909794413215  0.5791562411045037  0.0513432990423178
  0.8736631471186025  0.5934457399430670  0.0402512884538846
  0.0346093194082717  0.7677696818405080  0.0280378126271410
  0.2015948875805670  0.7689662163050418  0.0370211472071170
  0.4008953580779010  0.7988220156418486  0.0430153800538856
  0.5531547407224392  0.7411475407733225  0.0419518293121317
  0.7268347502261557  0.7819054028101523  0.0304815572392880
  0.8643185910452236  0.7323405540719030  0.0510476250760356
  0.0444400986087700  0.9606914987903817  0.0288938022315279
  0.2229418430056321  0.9367234396323363  0.0462895380980935
  0.3936937966699113  0.9476475168236280  0.0327849339453574
  0.5613581141857803  0.9530279166609048  0.0401005768774570
  0.6945601071397638  0.9340184006762601  0.0492955773299571
  0.8833533522282115  0.9076987493738501  0.0320754444554884
  0.1629862345656160  0.0952152262271552  0.1162757816321143
  0.3017168160370214  0.0598536556369636  0.1307903836082085
  0.4808207003880814  0.1045101077828451  0.1143250273398201
  0.6065378811876190  0.0266355761766397  0.1271428222246288
  0.7657606754133567  0.0241705063231622  0.1239852505473938
  0.9700968913355301  0.0353409742216228  0.1394055006664206
  0.1234193016782760  0.2212150908686025  0.1325681661448523
  0.3161184868530412  0.2281540862653162  0.1154924824296027
  0.4756512736037891  0.2428741894314816  0.1196710486911796
  0.6320277246748148  0.2522234939909258  0.1360259407375880
  0.7576786233151795  0.1800423279516462  0.1342204710991892
  0.9305931979825314  0.1790691854864914  0.1241436999288511
  0.0627444506402139  0.3480245060520677  0.1354258175715083
  0.2712831465687236  0.3748816544706864  0.1157401989531592
  0.4419414760977207  0.3852390999662715  0.1164948023553299
  0.6019022320463936  0.4046994386023018  0.1335491024793834
  0.7754651295498801  0.4007678466941685  0.1365202121128624
  0.8976510680293488  0.3480536465720095  0.1267944452371449
  0.0854922788097678  0.5024182189941329  0.1319898401881434
  0.2472741472402713  0.5222169148297406  0.1132351982131772
  0.4366431386609536  0.5414586006144072  0.1285640871744062
  0.5941633780594481  0.5619554449725459  0.1494707376573569
  0.7583552798097594  0.5619031035247030  0.1376021935244643
  0.9654973323204761  0.5545265528962428  0.1236700807043011
  0.1274519343716372  0.6628450648678411  0.1276691842428781
  0.2897632346209757  0.7135500497912286  0.1226972892423918
  0.4512166293227389  0.7423216673706545  0.1147398286578570
  0.5776656505879764  0.6930902544770967  0.1322539710444339
  0.7465456610118398  0.7205149781067167  0.1159094070047783
  0.9365682090442685  0.7052967415276133  0.1232093937435364
  0.0935889194505027  0.7911073187613858  0.1187153116456723
  0.2725307216536548  0.8803631191370540  0.1125092640176866
  0.4440912842549377  0.8882825586771192  0.1132692444678260
  0.6087733591412555  0.8503349509322671  0.1325713707279654
  0.8022291335924507  0.8863376162436637  0.1270146202157395
  0.9831772918456840  0.8885348491323147  0.1118117439469555
  0.0652708328402530  0.0986178113108867  0.2116993159524083
  0.2276064383848771  0.0997662603792188  0.2062277986913776
  0.3843127609229888  0.1214023949265246  0.2228378267562830
  0.5152823261496592  0.0766220347202469  0.2205382777110957
  0.6964207591296171  0.1097869095147172  0.2165805138135709
  0.8653892563930882  0.1090559622932928  0.2099928571117480
  0.0358539344919569  0.2355804266089933  0.2130210266605619
  0.2541327345104233  0.2747182705600340  0.1967725019975670
  0.4049121347337032  0.2871604761809035  0.1890984724494889
  0.5556525400503993  0.2678932141745867  0.2132882455970776
  0.7456933452057054  0.3057322180692017  0.2198505436394226
  0.9005679833749565  0.2809622887367157  0.2146930586101520
  0.0669139809780824  0.4366411595134378  0.2248292048508591
  0.1935675408160119  0.4088749361192051  0.2010512027795897
  0.4013928532460077  0.4579557271740061  0.2005839462012173
  0.5567597734922480  0.4416495012416561  0.2064910026288631
  0.6885828499834155  0.4139809476961184  0.2234378115037456
  0.9329491499958226  0.4535915027381424  0.1916006790530438
  0.0674621933314137  0.6216176936644090  0.2182427191986683
  0.2268033325447171  0.5972743079469992  0.1940738787666482
  0.3713513176867146  0.6024254953465495  0.1854658007144125
  0.5504992583996424  0.6244002776667931  0.2179386870159322
  0.7243318113538283  0.6285741216802586  0.2166011340389346
  0.8626545132113923  0.5796965501818583  0.1986271486484504
  0.0214305463503601  0.7416052044819512  0.2056719382664381
  0.2123250009080930  0.7827931049599917  0.1902958952744331
  0.3653366707410317  0.7586857599535461  0.2121282536226803
  0.5344948821972304  0.7654846920901782  0.2053789184343566
  0.7196080507424119  0.7785802883244265  0.1952664476241238
  0.8765330182687014  0.7858567962726914  0.1893569528320317
  0.0353840113386708  0.9397482207539229  0.1964720160518218
  0.1859855761854521  0.9220327245789789  0.1850139690987467
  0.3664486279033987  0.9325188457246711  0.1985694703362555
  0.5238659333768146  0.9251608131384571  0.2089140909856933
  0.6952988046702642  0.9153485800604334  0.2095926101719781
  0.8767093788463003  0.9567612023656993  0.2241900590723626
  0.1028295668283330  0.0169844339234623  0.2846038888114754
  0.3005100180450829  0.0751463100513285  0.2978497072362250
  0.4462017995677551  0.0596864111120619  0.3027646019481201
  0.5904923132186196  0.0200365231497184  0.3013174321687527
  0.7635258089490071  0.0451702320902577  0.2871728043497190
  0.9248990040337473  0.0681680652360821  0.2882512199027050
  0.1353222557243520  0.1979876732005731  0.2908884507535548
  0.2979917093621391  0.2134448847175356  0.2795373212580934
  0.4617018981371675  0.2299793876922635  0.3046622143778815
  0.6064133585057835  0.2257041436263169  0.2936807292962738
  0.7969110149987977  0.2284842996224059  0.2871823546613030
  0.9738630252130345  0.2215170969346264  0.2989459472423047
  0.1159340554700257  0.3599824360017805  0.2873745511857078
  0.2740254394441420  0.3470452499048234  0.2868290207318668
  0.4547869033990776  0.3854281302731707  0.2749161033845127
  0.6159156978686435  0.3851697862371623  0.3006215375845854
  0.8634903068461737  0.4636822787834006  0.2672037976883841
  0.9681583518272284  0.3820364138902768  0.3000769154368051
  0.1235903173017240  0.5677133080414990  0.2983351201517715
  0.2713230024004326  0.5468023375024174  0.2688464417192670
  0.4348335701555838  0.5228034120995971  0.2944960095905392
  0.6047680890528273  0.5418716987445221  0.2852295074865926
  0.7744596425367418  0.5497881922520256  0.2906390423569890
  0.9829985821436110  0.6064988933642869  0.3089784726891485
  0.1416282476385206  0.7548886241114119  0.2803494296236364
  0.2666738372360285  0.7152712613138020  0.2935682667558134
  0.4699307348192051  0.6916063298417475  0.2909463901490662
  0.6358010353700724  0.7051341543595544  0.2909384039996823
  0.7948503758106983  0.7408497579016919  0.2990899064105683
  0.9122049469867289  0.7070538779552864  0.2700122753330887
  0.0844341671529755  0.8640197047397847  0.2807470452063910
  0.2778647563509509  0.9226252589029637  0.2858357829403266
  0.4328862576110832  0.8849047846846048  0.2927622572326536
  0.5875042616398491  0.8571276863067795  0.2960678539838442
  0.7531507148488008  0.8676745839251944  0.3015612269919484
  0.9329458214007263  0.9069538807790600  0.2956168593288300
  0.0328105345017038  0.1155072116052467  0.3582866795811671
  0.2087723796355305  0.0923720609318186  0.3810552326479045
  0.3685608156892668  0.1030797376678462  0.3830565636039382
  0.5751594852959656  0.0987502805579050  0.3982417972361328
  0.7350576745143266  0.1351890626579717  0.3695074108722773
  0.8853998668906559  0.1284483493326055  0.3803653780169855
  0.0552072757207379  0.2743903247495980  0.3751401997702988
  0.1967589201580361  0.2490598158891495  0.3939749884260531
  0.3582123890527112  0.2532517287985376  0.3693939984290829
  0.5580557146141556  0.2755811097693153  0.3810089070964532
  0.7335321751591924  0.2863989843699174  0.3727335461555504
  0.8782493342611188  0.2981159212653580  0.3647852624743538
  0.0689428242690037  0.4584539974357962  0.3765496097172977
  0.2309917611338181  0.4213374418079369  0.3589703295931611
  0.3716734137612848  0.4147700647658502  0.3681877746854398
  0.5152906353649003  0.4149718089695426  0.3593266885393612
  0.7289475631417182  0.4515582974384007  0.3750121691918845
  0.9256957501682862  0.4740709939077464  0.3730668265389209
  0.0653117317173333  0.6593113561496966  0.3796095353360053
  0.2075958802288402  0.6268520614510333  0.3814141709822410
  0.3697155105942764  0.6043724327578870  0.3561042852165509
  0.5260916563702540  0.5903236888676305  0.3585858958329480
  0.6941182160716346  0.6059703414674303  0.3718240724154717
  0.8656130374636358  0.6132467581074382  0.3796652858874052
  0.9964329010077984  0.7684259519128944  0.3532129010684625
  0.2373415937851232  0.8004957394943524  0.3701111511040658
  0.3781012937627322  0.7783833233006175  0.3843348040017614
  0.5155417872404445  0.7570986903740461  0.3814149444232239
  0.6774576960258855  0.7675018429697459  0.3731360502625785
  0.8645136082712210  0.7984271823586060  0.3769312225067770
  0.0243244923692197  0.9439028426938608  0.3740435544099921
  0.1732281954543443  0.9017370747190709  0.3530225135082103
  0.3737970943198984  0.9424593106527244  0.3789798972079839
  0.5310511908430589  0.9375388614134290  0.3825291223671393
  0.6831845011256840  0.9442332707470077  0.3656060797611719
  0.8476382351651373  0.9302545199168961  0.3778835382984088
  0.0956030863409366  0.0567355104049625  0.4672292281936272
  0.2417215786051873  0.0449685658253897  0.4632955143598469
  0.4351522185391891  0.0469248650515083  0.4589821727386727
  0.6064801927321744  0.0366997226258174  0.4692768795722251
  0.7572900300754977  0.0559179711205202  0.4479971838247862
  0.9458428474000002  0.0649014781708964  0.4517037079331167
  0.0981031257387682  0.2005105151257581  0.4674538528315511
  0.3079918898435635  0.2170596120593507  0.4630723947567252
  0.4672715842322497  0.2109793168762985  0.4554886329701922
  0.6270069061856989  0.2212095621299495  0.4762743534994786
  0.7704455094169071  0.2104022223247166  0.4612945358545435
  0.9189313310219804  0.2079698356765700  0.4687338468824984
  0.1095651575459416  0.3513688502062621  0.4603033442085739
  0.2693806593064078  0.3759218710923019  0.4572155630963872
  0.4457466952378259  0.3606001168764466  0.4521045014695259
  0.6176192962789285  0.3902081424423887  0.4541205106229836
  0.7814350210400166  0.3848353301515300  0.4702777361895423
  0.9459921291401422  0.3955741690755475  0.4504345793451027
  0.1178507520353144  0.5462970912203295  0.4741794705322483
  0.2762990910886459  0.5583482073462406  0.4475495461040240
  0.4423284893318649  0.5713648287434464  0.4415026078132140
  0.5700339496663900  0.5107770565015681  0.4421255430012187
  0.7561220953981687  0.5710227244183166  0.4469064741524136
  0.9545451624633466  0.5552139197935043  0.4594131063576948
  0.1057857938565642  0.7262965487491664  0.4653036497942395
  0.2537124085266086  0.7207732222889083  0.4647298309939257
  0.4219016389554021  0.7163949459868457  0.4587458849184982
  0.5784815832160586  0.7068011108426597  0.4647053750742454
  0.7417695356314884  0.7214241856080498  0.4406969113556508
  0.9148174907418659  0.7260296555862837  0.4488877771650616
  0.1053161446644334  0.8690560563572313  0.4390055237526094
  0.2594766014305007  0.8927441360788411  0.4523313840338221
  0.4508305827455681  0.8806860349227539  0.4598456196438480
  0.5837707600091169  0.8689448884054302  0.4582622416648328
  0.7691603101489346  0.8796095341606158  0.4545964305373691
  0.9240591365200932  0.9024930475993397  0.4633291845609493
  0.0300557741084392  0.1316723493014089  0.5458242757646428
  0.2145782019656962  0.1325296535002656  0.5372947192119468
  0.3847930802690563  0.1170170130039261  0.5275062812795269
  0.5183841518266543  0.0903540064138262  0.5479340738494386
  0.7055038747583543  0.1440831110467278  0.5432394067912163
  0.8481199105010511  0.1171949120315607  0.5344469119515235
  0.0576494823914626  0.2988630820499420  0.5537268552691674
  0.2009206081593594  0.2963908349530769  0.5409573705944835
  0.3564311549285594  0.3016135268271515  0.5339489065190817
  0.5406319270735549  0.2780081599308808  0.5468593221014066
  0.7151482505890234  0.2851783953471966  0.5486369532297658
  0.8624048575529658  0.2967917825799574  0.5465581589201374
  0.0547814877834938  0.4420770161327258  0.5505515611276320
  0.2134759561371528  0.4859261787777026  0.5270289024080563
  0.4061472806109730  0.4666424328780277  0.5183383070882015
  0.5254241843489988  0.4374378661277832  0.5419936243119888
  0.7080621277878161  0.4718518511243355  0.5234863667824802
  0.8955470480019949  0.4780617967216391  0.5539295686210373
  0.0469389736133988  0.6015751755563337  0.5470605353588320
  0.2362647204722371  0.6520025777534869  0.5443162637541712
  0.3831292382427438  0.6261593095865358  0.5296518438039590
  0.5608947375642436  0.6190558609387669  0.5437875572046004
  0.7159767377253680  0.6161128197292521  0.5234234281937674
  0.9171509385455753  0.6333869472666058  0.5475459028194823
  0.0596981403524835  0.8138707728262601  0.5221343261722182
  0.2162477178369676  0.7923427780297480  0.5442597361715100
  0.3934426936175325  0.7908456358690215  0.5396318767990396
  0.5407796290155819  0.7665605521188522  0.5355828178580695
  0.7073977918463966  0.7784149053521421  0.5518757695273742
  0.8816749353745142  0.8092619395499969  0.5476503730671510
  0.0469721571660679  0.9550290041109417  0.5361937407219260
  0.2094326668418926  0.9347284188011799  0.5408799037296766
  0.3829924619714169  0.9355798404322402  0.5368334713424076
  0.5584954873752409  0.9558685562868972  0.5534204123613772
  0.7107672636762395  0.9446022107723073  0.5278360476612743
  0.8982445128792609  0.9723896386020801  0.5426934347627149
  0.1027065920068904  0.0801747314713970  0.6114560549118464
  0.2807903683719910  0.0807900989528829  0.6138989466067679
  0.4531737535209403  0.0359839626927569  0.6408869991608379
  0.6060788007261044  0.0619657268188014  0.6341669209184413
  0.7804472297160790  0.0841517276175698  0.6188237790970160
  0.9677030379901483  0.1230498438561147  0.6364740009718276
  0.1669453657327254  0.2711679316514408  0.6411624816931696
  0.3200164334735845  0.2674570246547454  0.6271220729920528
  0.4524554702235677  0.2267714814654367  0.6129850646598896
  0.5838935050966690  0.2002241596716073  0.6229790851015776
  0.7593472509416833  0.2418448328247645  0.6305433311445073
  0.9154227890250450  0.2482459615529487  0.6203101802240217
  0.1345880771058298  0.4312551464080925  0.6296796103286965
  0.2938744424123416  0.4177312958009040  0.6046534827204818
  0.4627715223790549  0.4217953690464892  0.6284025460951832
  0.5879091044022633  0.3882850954360213  0.6206651602743436
  0.7471303772498565  0.4142409347716134  0.6095713009512624
  0.9241264921410032  0.3965554417742204  0.6358891185100413
  0.1196295353805388  0.5729465496202594  0.6169462979546618
  0.3039870638084965  0.5805613493440890  0.6157041950704467
  0.4375267051709436  0.5559010341693066  0.6094374514303388
  0.6386730406955272  0.5667997845581906  0.6068727603829274
  0.8070913755320878  0.5832529134123745  0.6469654199352570
  0.9638792736744296  0.5888740493360684  0.6442994590424417
  0.1013694509703561  0.7458868324697242  0.6302395137027971
  0.2618507396447492  0.7338314414382658  0.6314294033035600
  0.4402661143823176  0.7210792020716607  0.6398222109603157
  0.6198116531291034  0.7279503698766544  0.6150916003541652
  0.7844573520764415  0.7599205406202221  0.6435898020408383
  0.9388939146271905  0.7461888880752652  0.6219825686868800
  0.1116406095195680  0.9183738456119280  0.6312917823276343
  0.2853617937635397  0.9149782655286425  0.6263511067357331
  0.4329108719177011  0.8720511577496418  0.6220645143618806
  0.6220042862594493  0.8689833556449726  0.6194764386724755
  0.8080359884880856  0.9415473047959400  0.6103001095422702
  0.9508583565932057  0.9226630274847697  0.6272294739736731
  0.0614484668014793  0.1425357894850815  0.7208653960904635
  0.2042192026365443  0.1148766849575096  0.6967629228911075
  0.3658910312205197  0.1065581402317104  0.6990010004796388
  0.5651224891253677  0.1364776683995163  0.7100161033509668
  0.7187216319094735  0.1052096248741230  0.7042087230578993
  0.8616828856388009  0.0945491305904317  0.7161130347537767
  0.0330083237200481  0.2714807519565259  0.6835915144674962
  0.2813536460691932  0.3292726843798118  0.7175656453141275
  0.4256593565919051  0.2989005483135845  0.7133239908082832
  0.5640441849978051  0.2871932569491041  0.7059237450664787
  0.7143007118837535  0.2779973607707763  0.7157883920355702
  0.8689823003255907  0.2663474216917022  0.7109934402378609
  0.0390929179688103  0.4132059620206350  0.7110482411623585
  0.2209317914485568  0.4489784991275809  0.7068242492843828
  0.4315596115186660  0.4660942851817669  0.7140419933102521
  0.5870424858083315  0.4991033246969800  0.7062094838789115
  0.7235763454435923  0.4359953027267004  0.7035850943238282
  0.8801787099760934  0.4243611143478569  0.7246741191383206
  0.0503912178400674  0.5885850769229287  0.7118881367603097
  0.2281479494935005  0.6124164722150254  0.7064899804496053
  0.3931750051760326  0.6134105085544547  0.7130638565380855
  0.5896376215128316  0.6565826735828303  0.7038931605338694
  0.7406429537141743  0.6281049658929965  0.7149782056142988
  0.9066137387837105  0.5927650985000167  0.7254449198162263
  0.0528648449508765  0.7886327422780427  0.7034128627690598
  0.2025485034336143  0.7767213829142108  0.7122946578890547
  0.3780926329660874  0.7745074215104354  0.7116852734215383
  0.5354669813939732  0.7800512686307748  0.7222941074292205
  0.7286793327704738  0.7918868940340291  0.7267262070036230
  0.8875610324860761  0.7851200929410782  0.7045951172788074
  0.0623627645965829  0.9452940927195869  0.7095831354684979
  0.2162967835951488  0.9453692992962741  0.7074193118238703
  0.3846117747391997  0.9401731609245950  0.7111470809157452
  0.5582211449443822  0.9332312951379693  0.7037324237350862
  0.7257248652786598  0.9300323525025762  0.6870072379627086
  0.9001867565555033  0.9579386209650792  0.7061628370027603
  0.0805477828979560  0.0477458759881799  0.7818144997209092
  0.2734291663845873  0.0658273354777859  0.7927819287926683
  0.4518555185857966  0.0848752663847920  0.7687684877006258
  0.6205655477592824  0.0554838253750153  0.8094854498712901
  0.7552937450111555  0.0461241817134251  0.7911967199623048
  0.9475771005924420  0.0773400884889729  0.7866195346778657
  0.1363513549041661  0.2372369838322638  0.7945380053887778
  0.2900948921022774  0.2363534142452112  0.7880657852541183
  0.4318251852588079  0.2216824737398377  0.7856192884045818
  0.6076864115387219  0.2276263987834579  0.7922897552560162
  0.7713958145097708  0.2082111531604904  0.8060789606446656
  0.9706281403240360  0.2448944689091564  0.7872228858399998
  0.1288409707772301  0.3793975784290079  0.7921954878595078
  0.3191049802083134  0.4114482022281117  0.7921002010372125
  0.4357276017570280  0.3736331293225876  0.7995083147133311
  0.6339965343839025  0.3971247527757159  0.7887944834689190
  0.7900922939022766  0.3790532595858412  0.8005346974317191
  0.9673525539417110  0.3909048340352082  0.7976769324355938
  0.0999163946225387  0.5311938208578943  0.8137058116445036
  0.2645834265881400  0.5606759566435117  0.7980752635606524
  0.4900862170915031  0.5642578870254991  0.8011856241886632
  0.6320956574743777  0.5548073208373687  0.7904244750315996
  0.7867167524849217  0.5432592902158928  0.7900091437127295
  0.9666992244430433  0.5664982032179852  0.8024101517470279
  0.1068902019065105  0.7074599251877927  0.7880105287680822
  0.2759706917802673  0.7182605379171362  0.8076007545201300
  0.4379441831090521  0.6906310118133598  0.7975597148743008
  0.6232789860964416  0.7212190430687058  0.7932111572930204
  0.7960638853829010  0.7366276706009444  0.8010032046320062
  0.9547876240522640  0.7392665313566151  0.7992713679925999
  0.1210394089090193  0.8670329831529128  0.7949940459638849
  0.2837740799115779  0.9078437668440078  0.7935896748575937
  0.4589337264497711  0.8823249177467479  0.7966340996731489
  0.6369779262118244  0.8834503291421145  0.7862941471361395
  0.7989337381446556  0.9005529404270152  0.7864146126106769
  0.9523698611035585  0.8915321236010835  0.7864687983493615
  0.0603661026048218  0.0928010061318254  0.8689582298582377
  0.2330752258640802  0.1318952818619510  0.8685972495284663
  0.4023811750514546  0.1162054711721744  0.8637508798167048
  0.5405735730706124  0.1168351549892946  0.8745618765265251
  0.7217463689995158  0.0772715102892929  0.8813935804762356
  0.9142442089284436  0.1015864803779900  0.8736917328630358
  0.0623232435329071  0.2664893671704598  0.8738435823136420
  0.2317683895438093  0.2951197311313272  0.8759864115625851
  0.3893957326460956  0.2471830437322955  0.8792015118046567
  0.5593422258284044  0.2865069983786801  0.8720634737257161
  0.7062498231620835  0.2753366987741179  0.8769823498091421
  0.9092423235804143  0.2882937225258671  0.8837929927601481
  0.0766561796471360  0.4288934988596970  0.8803880885847722
  0.2591840020799486  0.4537676134685851  0.8703666926152394
  0.4098613207697248  0.4391497671679372  0.8817136627910093
  0.5620640927215561  0.4420910287685758  0.8644485916563760
  0.7507069209087155  0.4541479490742056  0.8796889038424952
  0.9206062151039611  0.4354897697887750  0.8760089048716925
  0.0825834232805222  0.6249847968669826  0.8952761203143756
  0.2286095218645497  0.5864350108795080  0.8849727438293888
  0.4102867410336407  0.5926077528148320  0.8819958684910180
  0.5758042749465101  0.6105958831332436  0.8809075776071651
  0.7207031700724263  0.6004204909202248  0.8693193078773347
  0.8936442125042355  0.6386385904413401  0.8871475144019751
  0.0873970044886780  0.7897376933618123  0.8745416975232942
  0.2574975593025176  0.7839089693345768  0.8732311183034548
  0.4080034855632951  0.7461270688866826  0.8763364857109495
  0.5696530176797917  0.7721123454952233  0.8727725445009917
  0.7483918788872795  0.7691306945990151  0.8729282909343653
  0.9150439805949536  0.7973271411283013  0.8692991757383455
  0.0938051094870281  0.9545131035004526  0.8728014380288823
  0.2520505326786485  0.9497780478310929  0.8753029506492067
  0.4051537737166548  0.9487360610202643  0.8579950279941398
  0.5565794552609311  0.9255570390997389  0.8705546332332446
  0.7399507113540432  0.9436063657385289  0.8794522092892133
  0.8914912293058010  0.9341060754966292  0.8638735567280191
  0.1337735450851962  0.0721690920037248  0.9559542940413137
  0.2866425044775696  0.0800702507454438  0.9446862382100419
  0.4260059989780570  0.0302305597296216  0.9424257625910683
  0.6238252728174609  0.0566731800660926  0.9504075424964001
  0.7817896829420283  0.0746059775387649  0.9696736613701749
  0.9485562781962844  0.0802361168491222  0.9546050864099583
  0.1303807260740997  0.2163938106767490  0.9635136740950949
  0.2932479706140527  0.2344042855536498  0.9630266370039432
  0.4517172782104555  0.1822941229507979  0.9616267434053655
  0.6256061150451283  0.2110827545205562  0.9631613151455448
  0.7998226390581679  0.2437687909211640  0.9742534442664997
  0.9429816676074092  0.2381158610348773  0.9552614798917989
  0.1437220422999101  0.4173285597466744  0.9637113845135700
  0.2816392447135053  0.4035581843265822  0.9473511551431835
  0.4618247128573507  0.3648348628978595  0.9590558016519876
  0.6255780576808906  0.3577309412658812  0.9569652664225312
  0.7798249077213333  0.3804241056608764  0.9551864384049187
  0.9558462384827153  0.3970558028305940  0.9555674811980149
  0.1003382384583092  0.5472611840774821  0.9726560954066401
  0.2865579780602374  0.5727543629050381  0.9688476923420387
  0.4347942080520809  0.5424002397602927  0.9674695967085158
  0.6325127965017078  0.6205561445365968  0.9716406207654165
  0.7698019115176488  0.5614119795354376  0.9693853271972613
  0.9137549494129324  0.5444958242307243  0.9695916597810738
  0.1292082568762398  0.7393683369063772  0.9541537406283461
  0.2683204028663814  0.7150168772863510  0.9631593010337205
  0.4465223119630674  0.7105929321879091  0.9707087252724179
  0.6238080643816996  0.7579025309203393  0.9556976020671205
  0.8125494841035655  0.7416750886688178  0.9657486743489124
  0.9792821651457865  0.7641990781198402  0.9506175881630354
  0.1428165003809454  0.9235500862696016  0.9576015267921448
  0.2767240236856992  0.8833740815020955  0.9631989510799548
  0.4395402707770287  0.8554090594891436  0.9475948312533280
  0.6099473257219785  0.8925180522536764  0.9568380054190001
  0.7981212304485826  0.9178825219562374  0.9643928531745970
  0.9689111685700168  0.9050596191871265  0.9514431555844116

 -0.82799390E-02  0.89392070E-02  0.67572742E-03
 -0.28129437E-02 -0.85775375E-02  0.32279410E-02
 -0.16724826E-03 -0.13786653E-01  0.10683240E-01
  0.25115411E-02 -0.98772031E-02  0.19138960E-02
  0.62300647E-03 -0.17902852E-02  0.12966015E-02
  0.68490238E-02 -0.60132490E-02 -0.14761657E-02
 -0.67297897E-02  0.22099590E-02  0.24775175E-03
 -0.52512874E-02  0.73650091E-02 -0.10570108E-01
 -0.13267189E-02  0.65711525E-02  0.85369235E-02
  0.38181066E-02 -0.45018722E-02 -0.65273657E-03
  0.40640027E-02  0.77117996E-03 -0.10659969E-02
 -0.56532726E-02 -0.75688406E-03 -0.97438779E-02
 -0.50973647E-02  0.41983168E-03  0.11757032E-02
  0.54102029E-02 -0.12692025E-02 -0.14990266E-02
  0.98347784E-02 -0.35920842E-02  0.42208590E-02
  0.33133032E-02  0.42319620E-02 -0.52160574E-02
 -0.66927962E-02  0.66017754E-02  0.11368920E-02
 -0.89224916E-02  0.18240256E-01  0.32451872E-02
  0.44504615E-02  0.58290422E-02  0.35288275E-02
 -0.12426596E-01 -0.56396493E-02 -0.48522789E-02
 -0.35229843E-02 -0.10516567E-01  0.55625701E-02
  0.36595954E-02  0.19349716E-02 -0.59522478E-02
  0.89228205E-02 -0.29283140E-02  0.37481715E-02
 -0.20301319E-02 -0.26609211E-03 -0.31923223E-02
 -0.28793691E-02 -0.59938453E-03  0.15509689E-02
 -0.11335547E-01  0.40931521E-03 -0.86010863E-02
  0.24059005E-02  0.34832862E-02 -0.11508864E-02
 -0.13387646E-01 -0.42489554E-02 -0.22261708E-02
 -0.37481479E-02 -0.11134506E-02 -0.33907331E-02
  0.39095579E-02  0.52913939E-02 -0.26843577E-02
  0.34642317E-02 -0.38301235E-02 -0.64925602E-02
  0.10433777E-02  0.55477123E-02 -0.31554348E-02
 -0.83786981E-02  0.27021771E-02  0.31189829E-02
 -0.50186142E-02 -0.18294837E-02  0.50398783E-03
 -0.67773168E-03  0.84441123E-03  0.88164565E-02
 -0.41719117E-04 -0.57272610E-02 -0.17925951E-02
 -0.34200516E-02 -0.38619393E-02 -0.38570836E-02
  0.19954919E-02  0.20516583E-02  0.26429123E-03
  0.57276747E-02 -0.97421472E-02 -0.34649580E-02
 -0.41203611E-02  0.74980840E-02 -0.72280574E-02
 -0.36839797E-02 -0.55156639E-02 -0.30287501E-02
 -0.15076188E-03 -0.52079093E-02  0.62951299E-02
 -0.29717876E-02 -0.95373930E-02  0.16234353E-02
 -0.32103572E-02 -0.83059825E-02  0.44745076E-02
 -0.51636091E-02 -0.14009168E-01 -0.42324153E-02
  0.26842987E-02  0.58139581E-02  0.30510046E-02
 -0.17116919E-02 -0.60040271E-03 -0.22085525E-02
  0.30364068E-02  0.42752832E-02 -0.58372914E-02
  0.10483553E-01  0.70545186E-02  0.93877253E-03
  0.51471619E-02 -0.57603200E-03  0.33163529E-02
 -0.67780035E-02 -0.94958686E-02 -0.40511729E-02
 -0.32643980E-02 -0.15853020E-02 -0.11493250E-02
 -0.75024261E-03  0.15704921E-01 -0.19560966E-02
  0.27905790E-02 -0.96215661E-02  0.21636034E-02
 -0.96991470E-02 -0.16147844E-03  0.47103284E-02
  0.25440245E-02 -0.59085472E-02 -0.51325345E-02
  0.54161671E-02 -0.45318431E-02  0.13700721E-01
 -0.11163463E-02  0.38478017E-02  0.14174331E-02
  0.18560973E-02  0.44347673E-03  0.27928139E-02
  0.93884552E-02  0.31107315E-02  0.17480202E-02
  0.51532797E-02 -0.78612110E-02  0.11615918E-01
  0.10194358E-01 -0.43217862E-02  0.12121621E-01
 -0.71918708E-06  0.14391702E-02  0.50781619E-02
 -0.16114863E-02  0.11269438E-02 -0.20487238E-02
 -0.56338359E-02 -0.18994362E-02  0.55005090E-02
 -0.87599555E-02 -0.13607930E-01  0.16729285E-02
  0.26713194E-02 -0.14434199E-01  0.70091803E-02
 -0.22076914E-02 -0.22647896E-02 -0.17253627E-02