super cell                              
   1.0063464274213869     
     9.5160698588808970  -16.4823164839565095    0.0000000000000000
     9.5160698588808970   16.4823164839565095    0.0000000000000000
     0.0000000000000000    0.0000000000000000   31.6698960700000001
     432
Direct
  0.7001494600885678  0.0583818723283653  0.2050242133922149
  0.5157983106961661  0.3456257371209027  0.1662592346785176
  0.3461465326071527  0.2385124476953729  0.1601291727225246
  0.9723073816356607  0.7163364169912783  0.1531946453606068
  0.6503719031449307  0.7418383680702131  0.1422138900148291
  0.9817685397186490  0.4461713108680875  0.0900333633270080
  0.1157985875571991  0.1060156035729450  0.8500924368520394
  0.1221725080648609  0.0497986566905291  0.0780790323165626
  0.4647849943503336  0.0596632744316152  0.0256866527291807
  0.2049625691994696  0.3143046489103762  0.1255376363486449
  0.9216315213589658  0.4028343327813732  0.2601703991200842
  0.7999338956012177  0.8924214443228521  0.1194718047111018
  0.0910973211343215  0.5225261518507039  0.0097254447198722
  0.1901122846921283  0.8245536604786721  0.1049434270310289
  0.2558258351888842  0.2331942135618555  0.8981929366001302
  0.5328147434990119  0.6038528833085300  0.8159233336019398
  0.9201152694535245  0.3580137103009537  0.8395272700887014
  0.8285212188924239  0.4107051070368867  0.0837116399626634
  0.0529328091640015  0.6305596601355186  0.9559229366835414
  0.7576433797852723  0.2496152861689623  0.1160082624467785
  0.4760526148784874  0.4925081985456271  0.0268005682342369
  0.2767284455780120  0.4068684056617082  0.0514095744546631
  0.0524505933873172  0.5571078930015246  0.1695046569599410
  0.5685380014930461  0.5219049534765791  0.8853626061941205
  0.8380827700556904  0.6135044925645368  0.9744872656618461
  0.1030038206858160  0.7457427956525248  0.1902119950490564
  0.7075337332168984  0.7380783952434966  0.7936641486140907
  0.6963418488777264  0.4055121373005979  0.0398311885321563
  0.9989480243306841  0.7595378905069258  0.7394991426138260
  0.6083579314691502  0.4658990443126309  0.7242772956597187
  0.9837666960392391  0.9755472741311458  0.1388184335317839
  0.9539878781872767  0.7463832453202581  0.0335865879104164
  0.1577447580671158  0.9419559871747791  0.9860722963189368
  0.7097166148434438  0.8454564165108339  0.0399393553000144
  0.8734087221668045  0.7753731479645434  0.1265998982925889
  0.6870421389684894  0.5738275700933289  0.8111832052433403
  0.0303590664616941  0.8428538017056415  0.2180319695092214
  0.6656430565529035  0.0144991973673421  0.0244456834592490
  0.2690365061020736  0.0761553652479191  0.1292794144224636
  0.3742707852744528  0.9625704348650391  0.0920532381170013
  0.9123447413327501  0.9247016708241971  0.0470487771455919
  0.8879906563863449  0.4536109441037380  0.9728273297329026
  0.5807167388990256  0.9029734086134616  0.9162174015042446
  0.2953580673435610  0.3045871013785725  0.3077386551631066
  0.5852646826232741  0.2456780821641366  0.3348345962490190
  0.4675452824665486  0.9604212211760762  0.3312331765720729
  0.9483200353478642  0.0936834348528264  0.0807822916672092
  0.9579172193804574  0.1892793453452495  0.9724327786266560
  0.2241412737802700  0.6980579697932904  0.1518576586879885
  0.1203186448619875  0.4008704139552633  0.0640312440745883
  0.2996226819807278  0.4289873192329285  0.9603775708990806
  0.3968215525552704  0.3017027399996499  0.2360503040259630
  0.8963630005017266  0.7550882277041974  0.3807722030975563
  0.8933416184319065  0.0646577306741670  0.1765158306594580
  0.6491236025838034  0.3942262047442432  0.2895145083381170
  0.1630930386013521  0.5357532494676249  0.1177415166380475
  0.0714968674783205  0.6559763518142049  0.0943354749742895
  0.3245513941350960  0.9975337612617631  0.9667632978296826
  0.6433605753536613  0.5334525351556318  0.9579752169107254
  0.6788433122799953  0.3558353420419315  0.1896769655829169
  0.2778411522460757  0.6209708894643353  0.3721108792529682
  0.5735173008074942  0.3571051021146621  0.8933156785611077
  0.4487767999091206  0.2120309590343410  0.0569622153853028
  0.6355075456124323  0.0724219517642223  0.8697119267210519
  0.6321644099290271  0.6236953212707494  0.2657029120010708
  0.3440403013882680  0.8372982900938751  0.1940156615628369
  0.8653812444366518  0.6009056951763161  0.0883195090535046
  0.9200736607741222  0.2606560393631460  0.2975679914982553
  0.9215749093449430  0.5745876827354618  0.8905805493665417
  0.8653158105022776  0.7435624754761558  0.8484440757947229
  0.5194453263836262  0.7614426859589485  0.0922109944778911
  0.8229729317188691  0.9271849444098004  0.2915018891604069
  0.9249666433716791  0.9107403971506275  0.2242035781676099
  0.7158668205613522  0.7502900660667637  0.3466594871513007
  0.4853012138555104  0.9139491715357286  0.2506841570154427
  0.4317736495672176  0.8802567451920825  0.4133568010168623
  0.5413988881676151  0.8894636849812644  0.1634151899130473
  0.9080061295494525  0.3552193669834702  0.3647012574232155
  0.3905369976226168  0.0715686403336038  0.2278132732599338
  0.2299092768358138  0.3874276627833919  0.2449747682171319
  0.1810183990390402  0.2236706748089047  0.9859290022890279
  0.7921277657379479  0.7496339580330454  0.0296004640401116
  0.6031927696304338  0.5519121348896140  0.3521281127785422
  0.4153964184688498  0.0098549702052192  0.4281909134323462
  0.1153318088038430  0.7658429873325260  0.0165742348030289
  0.2762280370903954  0.4901518618224146  0.1427824326273924
  0.3614025327972298  0.3173725062961334  0.0013141177010505
  0.4906155422809659  0.8073831832953127  0.3425676036553358
  0.9692448047646528  0.2236100215034272  0.2134422236594575
  0.6418262216424233  0.0082476946957625  0.2984716141645740
  0.2238838185069856  0.5697257516317064  0.2874035087225670
  0.5501589284429060  0.5032966382425700  0.1380727237630619
  0.3923668289893831  0.7065028050887072  0.1710123964459096
  0.1131919770480897  0.3500769975682979  0.1756341786252554
  0.7204331055184221  0.6327268934233515  0.1389279157990009
  0.9365405803569521  0.8328844319060796  0.4903228303429099
  0.2719642890214900  0.2334458622115941  0.0714519361252226
  0.2088242801924295  0.6803275276175885  0.0550929083742496
  0.0607518824138053  0.1839886079748294  0.1623765144476331
  0.6571272943043153  0.1219272073142741  0.7773097603899414
  0.3336338132119414  0.6178559464781015  0.0903035729477230
  0.8568022926712708  0.7098267003712141  0.2095647519535211
  0.2747171230079111  0.0198710291362514  0.0524565516685502
  0.8742578201454838  0.5559720098330829  0.1791197040771917
  0.1097099302608654  0.8744929333285452  0.3651253451478060
  0.2075152964127068  0.2345493139407140  0.2164428904447021
  0.7656812040435494  0.9706313045446252  0.3711113631691361
  0.3375282244259148  0.8395130323950089  0.9061226292306290
  0.7799675960778051  0.8303293164829546  0.4574054806609298
  0.7845364161737788  0.5503915489569878  0.3954822710123853
  0.6565987381206260  0.3289108954496806  0.4135204501609447
  0.1508530142099755  0.1460716635172035  0.3021066517021349
  0.4705939946357984  0.0022753666214075  0.1781214064411841
  0.3756088044000259  0.8038862758127189  0.1148893309962873
  0.2891338684523595  0.3782513057732541  0.5637535246311954
  0.2828073693391972  0.4839168054542390  0.3217295766322126
  0.3538409558128692  0.3189489928902225  0.4742278775316155
  0.3756958595402833  0.4719412481616205  0.4882271798008773
  0.7424754597112313  0.9534968523520938  0.4597218218627395
  0.6783870083844550  0.6621802139913738  0.4260559621276805
  0.5121073039004802  0.6125507726761531  0.4281332538069710
  0.3863385157319489  0.7369108601260026  0.2661684645074308
  0.1314836030060544  0.3150575070606436  0.5428824945362150
  0.5122958269181018  0.2350670864574768  0.2368133231600446
  0.4315573186043930  0.0933703615194360  0.3234720107650391
  0.2042826147910962  0.4933004527817543  0.8298197788752685
  0.3418995540268654  0.1672587373469744  0.3022680578679575
  0.0005752626976412  0.3900946494667277  0.1709670015041045
  0.0731450078374263  0.5772133780839910  0.2624071392130091
  0.5337951500620320  0.6252224459931488  0.1983158170971186
  0.4636341789289039  0.5871110005284320  0.1173904606053154
  0.9504167334986267  0.6736210921566339  0.2637312732543985
  0.8335190257942703  0.2295541441847933  0.1859915267539789
  0.1224456539330423  0.7982107449896332  0.2756255530922341
  0.6225185026434998  0.9572104950266512  0.5647039120647240
  0.1183445256787938  0.9447714354924738  0.1488269552030663
  0.4908892884942475  0.3488403998578296  0.3159522190427050
  0.7307621736512286  0.4729773080623773  0.1237471631471923
  0.2363642221757910  0.9912390091487794  0.2819938524890715
  0.0812857647076942  0.0395455567534152  0.2138240877081395
  0.3458988714110967  0.5972342762168145  0.4504096032917806
  0.5417413400387591  0.6942557474971516  0.2935505671032048
  0.5648239699071786  0.7935838257572780  0.2092774661762797
  0.1953828899250312  0.5430392874069536  0.2008540456354234
  0.3320755307432916  0.4598423915440157  0.4006757792244225
  0.4414554877265224  0.4879887315836666  0.2902806664588680
  0.2563868162581218  0.1178714329809788  0.2289303043661759
  0.3322091456066061  0.7787962129759890  0.3570041694913622
  0.7817365800589376  0.1406425364359406  0.3669294571374968
  0.9871056003282560  0.0037078818675860  0.3294955083783795
  0.0739521295899041  0.4147447942342194  0.2546411353849033
  0.9790300205120150  0.0978154824253620  0.2538807001867525
  0.1208098700263423  0.5791660237959271  0.7015322226300356
  0.0071030624075954  0.4104449731152383  0.4412400390214145
  0.7017640084122619  0.6475343086474177  0.6457823926254020
  0.6335330437559883  0.8044572598822928  0.4084527285280307
  0.0883029741509492  0.9993662311891788  0.5036009957100669
  0.1029017942724659  0.1553906388585570  0.3974647331085592
  0.0869805247682738  0.2321244652483258  0.0674705239414933
  0.5295189905517759  0.4825582051406587  0.4777613201185825
  0.0891618618593292  0.5578737464961598  0.3914661475158951
  0.6334174747563287  0.1743152074760621  0.1840639474232178
  0.2674088532137480  0.9199919431525778  0.1716194760814481
  0.9677768672975586  0.5815925654118673  0.4322052139112142
  0.7082479778321551  0.4548562056090403  0.4866773768119427
  0.8243454940361833  0.6750037442922822  0.4565783116695660
  0.8722426097527011  0.5715538869518869  0.5005716514069816
  0.3833343654736481  0.4451286259885910  0.1884319185866548
  0.6023874290957892  0.2258539344353836  0.0163581813361819
  0.7740777727462901  0.4401777830169951  0.5762915001660484
  0.7893147611607638  0.4265126196295911  0.3603416747473714
  0.7467616442230680  0.7818119811217510  0.2418091784280203
  0.9154856766261119  0.9925464617122347  0.5115936488593449
  0.9504702830663002  0.2482789590026358  0.1046814867829915
  0.2767201069621001  0.6488298934941489  0.5473241278284021
  0.7602983860399294  0.5955928209621458  0.3151976055095921
  0.2192969248373949  0.8103881367279031  0.4181305359169156
  0.4534851578305634  0.7224642657929027  0.5284125032843594
  0.6557279863769000  0.4961671588388241  0.5709579605745876
  0.0817124713863868  0.9487380395720812  0.2847433246993087
  0.8795784615169037  0.9841881674274845  0.6064162765186650
  0.2777151744995577  0.0482163220767286  0.5200831585557377
  0.1863668107424064  0.0576346846163833  0.3713957258636621
  0.6504665396162229  0.8666906639254074  0.2758280314334297
  0.0950261642409876  0.4124277850656299  0.3399187899745379
  0.7561281579180672  0.9292249299867982  0.2009020518977927
  0.3806663456348078  0.1918302229332171  0.4709787906096132
  0.0517955249922836  0.9788333246228561  0.5883630425946124
  0.7580183756097519  0.5349277422191564  0.6532966316652984
  0.5348253710161782  0.9111808897271282  0.6594330562741418
  0.5326543441827540  0.3235966741594496  0.4736068650009352
  0.9544965947011238  0.1484891532521566  0.3508381731526032
  0.1925194611011713  0.5965886776092201  0.4667310625641508
  0.4251153661763717  0.1594533977349041  0.5526614584775025
  0.8084139269237466  0.0840173369154473  0.2818285724591709
  0.4398147841658074  0.4137952564898676  0.3934397604922819
  0.5351293013859585  0.1867533372132053  0.6383770124978931
  0.7149571502633238  0.1701037129226854  0.2742771368118277
  0.7408050678874212  0.3217174557771746  0.2670226750433711
  0.3345051482601805  0.7435673154492759  0.4706579534871783
  0.3679481847860157  0.8381522711582885  0.7981471202772206
  0.2372079982343849  0.4802349456483873  0.5271071701012443
  0.0070299482278646  0.6845885846598098  0.3562518518639831
  0.4595398681313529  0.7321915225282085  0.4185779357285375
  0.1768954037221810  0.7232323951483031  0.3309985357499626
  0.8663260789509147  0.1220682856197871  0.4425152352548352
  0.2301689391237598  0.7036252642908190  0.2509567356282046
  0.1832665633614510  0.9449428949184736  0.4429089964438405
  0.3757347283462331  0.5941042283687341  0.5902090111404942
  0.9022483233638362  0.8035426201351900  0.2972952736126216
  0.0278634985326074  0.9471998016074999  0.4203263461318142
  0.5741749430838169  0.1185977750337177  0.5407542273624188
  0.1238043880004606  0.6782860156205315  0.4962601800242374
  0.8515315008208119  0.8852618672639380  0.3780550915819212
  0.8332814365460934  0.4173274979431367  0.4552664872996667
  0.5368794092759687  0.9847074106646184  0.4948243874706947
  0.1328863700884017  0.1402376216068245  0.5681285015095954
  0.4760140535018250  0.0076216474775869  0.6200890977684185
  0.6898508175015675  0.2840301708857836  0.5038554795219480
  0.2094709271892009  0.1414950448061024  0.4759825576725845
  0.6754161778876214  0.1045407049846955  0.4674775907283453
  0.0645226495377053  0.1718966418045171  0.4811996637800444
  0.5505403634492330  0.8566617464213303  0.4811748979874350
  0.0142737496832308  0.2809837384514581  0.4098439667088898
  0.2222488345585295  0.3380696442326891  0.4593548439403373
  0.7858398528649893  0.0709546788546425  0.5299193010194072
  0.6069390057937422  0.4332575679001786  0.4031964665437719
  0.0915610065331132  0.2692188864938827  0.2802980533172203
  0.8297259400311235  0.1073693250848192  0.6255369144161161
  0.1342660687077360  0.6096418822745499  0.5883022744108810
  0.4600818161611207  0.3548841400628355  0.5588263091675937
  0.3825008026091544  0.8841492945405479  0.7003015702456040
  0.6225770414927736  0.9586208600529723  0.3992608646651780
  0.3352713939329248  0.7314160782670618  0.7236941019801298
  0.8950365397768965  0.8486718585969698  0.5817099555475607
  0.1802261861780276  0.3384181720882278  0.3624997627889020
  0.4792016250687175  0.6066977449991625  0.6608564900264406
  0.0191920260709149  0.8946902289392802  0.7931462297519180
  0.2927578309504261  0.2434621966633249  0.3877265844543455
  0.7344286570794542  0.7626752325419955  0.5812198536987316
  0.3121475019945737  0.8747448269726492  0.2807608375875891
  0.3289209174817651  0.0967342387772649  0.4001025860385089
  0.1760971234263672  0.4509357235816431  0.4344752915696926
  0.7887988809233337  0.6678901460764690  0.7528741922007203
  0.2173854587845494  0.6307274905565931  0.7803056243744868
  0.4434492029973063  0.6023478846128145  0.3538143575229734
  0.3531975591554533  0.1682824989980316  0.6392695441021927
  0.6067010362812537  0.9247004527250799  0.7439727003884006
  0.5948848319054315  0.7254286649464088  0.4959576495909785
  0.5454741609945428  0.1082041034657518  0.2651204244138275
  0.1710679691325640  0.2590766095047761  0.6303987279135805
  0.1436646996984028  0.4403200281506029  0.6189554561020402
  0.4188888380670251  0.4530613191785524  0.7193630896667473
  0.3360394569817050  0.3113854570182007  0.6552306510734627
  0.8897161407959684  0.7554839972693733  0.6752117701285467
  0.8649033042777179  0.2803735278416970  0.6291561325711069
  0.6654220835783256  0.6112495913393816  0.5171305984389060
  0.1269466129176375  0.8805878844075485  0.5381524632190982
  0.2906508815971571  0.4531606048675306  0.6598321540039055
  0.6984677995087635  0.2699474377038906  0.6018745191044943
  0.0735597398903428  0.4499149693307833  0.5390933626419695
  0.8346483364368705  0.4366908492407504  0.6607649064061643
  0.7245064055476625  0.2587012623537615  0.3661491887263137
  0.5743780210664564  0.3029328057219259  0.5642220072323251
  0.4538875103530645  0.2554256488430216  0.3868313812503250
  0.8571328112833854  0.3564974950789614  0.5426497528846412
  0.8163798859035698  0.2502549648745791  0.4496907044165198
  0.7666621315394787  0.2068939932439959  0.5514331445259351
  0.6664832956920006  0.0791582761032089  0.6310735232890372
  0.0556860019422246  0.6539535784400011  0.7702489642124204
  0.5084990310154337  0.4723787911666930  0.6486025583859260
  0.2885944637339666  0.2110315147268111  0.5588820078801601
  0.2677736020592877  0.6625911347205292  0.8728423969457815
  0.1271149484610066  0.2621780114351797  0.8027738127705558
  0.5391818939153875  0.1693900890041654  0.4496623132784723
  0.4091921265926964  0.0084444003922382  0.5284691524540974
  0.0535808808680607  0.7714317431818150  0.4530944053377218
  0.9703572416605435  0.7315704805594301  0.5472519474656538
  0.1181213049460054  0.7445514421954383  0.5723851543010782
  0.5757164456584634  0.7342377477534221  0.5917853500032213
  0.4781537870157498  0.0390726389391227  0.9076527420580595
  0.9783226611820139  0.5219888686731334  0.5300271930656439
  0.0741283877768845  0.6823600660920834  0.6659372544542104
  0.7040271087346559  0.9102637761971322  0.6433897430968287
  0.4361796225290018  0.7242801638197152  0.9472576101562850
  0.5288809265138994  0.9582029040106141  0.8143371029011324
  0.7621774008657139  0.5979864480733655  0.8933298686693441
  0.9556925044383369  0.0213632545414287  0.8082077147561326
  0.9577457665410132  0.2779794825799365  0.5084164446010130
  0.9387952427914947  0.0358108799648293  0.9203183916667039
  0.2229648599476623  0.2735305802346478  0.7185140602129141
  0.8153652457182073  0.6509124966273326  0.5806380508168762
  0.9257806240179068  0.0323834452060410  0.4289115343736922
  0.5589014812900414  0.7482494740362088  0.7775661022534297
  0.1732870233362956  0.0491637957445812  0.7756206782115673
  0.3588410725197172  0.5811943167496800  0.7347137764228464
  0.9136324619196026  0.1971997239217900  0.6998895064648671
  0.7632569999862061  0.2168892464557697  0.8729395676691233
  0.8858342376916215  0.0184018187033710  0.7129834534737757
  0.5882985004782517  0.1043904099100284  0.3816612875914978
  0.2935310565953246  0.4004838706725131  0.7798173097250689
  0.4577882881492243  0.7746457757518086  0.8467246938783991
  0.9859748788631916  0.9099275690712891  0.9758235149621626
  0.9475122791808593  0.6045436070941027  0.5993303714346949
  0.4041891450422596  0.2595821978583835  0.8680897644928857
  0.8998365892289625  0.6004278444282166  0.6987498699586319
  0.4186768492015564  0.7427748198926620  0.6449753392496125
  0.2987818408471034  0.7743122828171767  0.6252620683447639
  0.2167062677428695  0.7692886005750780  0.7299123496049194
  0.2876572287500613  0.8448219916765268  0.5236908235262544
  0.8005073486688912  0.3727519033379905  0.8912953932521455
  0.2764779609301863  0.9401746415036942  0.3605793840380174
  0.2885280633669576  0.1309634208905623  0.7181840162137675
  0.2183931496969955  0.7792147916816585  0.8303062582733683
  0.8147292905770768  0.3507080806349976  0.7367366978256245
  0.5198001797265606  0.5527825436671882  0.5552754745539410
  0.8316619263770991  0.7762398917993301  0.9295906314948014
  0.1601783606505852  0.1178797956398507  0.6691603391829030
  0.3144689733026279  0.9169206775954942  0.6046030526317973
  0.7272898214336495  0.8973553921409302  0.5534772309383974
  0.1759529822992923  0.4720514160490540  0.7392984507821811
  0.5779161767985617  0.6027965576841832  0.7317730368835337
  0.6067579742945133  0.7627016762660547  0.6886066989618023
  0.0054465196497755  0.1262670033864041  0.6442961704643191
  0.0544790434803953  0.1449492691400927  0.7342619925228994
  0.2430363099776158  0.9602295430479145  0.7762047498248210
  0.4241569302054989  0.2950572118361501  0.7260047488132393
  0.6859683634395179  0.2783991066272790  0.8054691125164314
  0.8232771674424162  0.2258970159036489  0.7709388236820109
  0.7489170124130141  0.0503393535947756  0.8118945128982537
  0.1053928886474108  0.2350438244949873  0.9047411084211702
  0.9595500124599351  0.4855134221870204  0.7266501041115886
  0.7521570816059824  0.2781130765820597  0.9707791343810691
  0.5191834983076863  0.1372221618678144  0.8347997426832164
  0.0060289868024532  0.3063321975417194  0.7933832120424334
  0.2324937933145166  0.3760128066442291  0.8652832304286734
  0.9020533811419719  0.1676708619229597  0.8573751225004709
  0.4325888424899920  0.3901540416759955  0.9276241525908272
  0.5618510212231415  0.3176296577616541  0.8023426569017568
  0.2216626319335686  0.0103852166087323  0.6133332331898603
  0.8252098078837742  0.0259246570159300  0.0168082247679315
  0.9320592703656880  0.1442022333189507  0.7805837272955203
  0.1027652933367544  0.3385274469741271  0.9735668675931289
  0.9566224243758686  0.1332830687704034  0.5539790890603340
  0.1584728795430511  0.5087622106555653  0.9316948980520600
  0.3979312051423508  0.4482294546240502  0.8612839413443811
  0.0348302566099084  0.8267150994911769  0.6271178923178637
  0.8870629238028334  0.6280785814464493  0.8018649710621625
  0.0877492717496148  0.3021692301449168  0.7103928063675857
  0.6610580314274307  0.3346606440995180  0.7145791549836610
  0.5454263149292329  0.0511282899276222  0.7074812534473133
  0.3983472103386888  0.7796223524650565  0.0268842189528302
  0.4479449577299632  0.8632697518514629  0.5683514327640371
  0.4131176787127402  0.0107450948671949  0.7754746622282552
  0.6591821308622554  0.8842959670867310  0.8466064671917413
  0.1230386363401850  0.0668762006395550  0.9446580263445735
  0.5007082533607083  0.2092409470862479  0.7285362838575541
  0.9649933389935748  0.9275627557612837  0.6847851326251710
  0.8680617408942252  0.8496080872143608  0.7634183609151028
  0.0720712248435847  0.3721661851012110  0.8820548915234540
  0.7740559637967711  0.4933399412634263  0.7611321594359600
  0.9940633014952823  0.7503839990509692  0.9262639398551021
  0.9799758188875103  0.8994864921090392  0.8901698957442040
  0.6163919831766229  0.1158609785600766  0.9707608992209162
  0.7266537055562226  0.4529215610746904  0.8524289477138326
  0.6960015367673567  0.7112724876691402  0.8779290006215243
  0.9844540560311676  0.4668569620691972  0.6210553070351070
  0.1680353985444121  0.9730184569141583  0.8598126245224643
  0.2868633412762179  0.1423779913997850  0.9935392438940555
  0.4924440533140801  0.4199725439373725  0.7932972001295874
  0.9812352345852289  0.3661602279995990  0.6946946909697799
  0.4668727098517987  0.6497886428711659  0.0253962491834854
  0.9870580069813302  0.4789242224060443  0.8991339005259020
  0.0198088525885431  0.2852554782333864  0.6169917671037021
  0.2635788908382761  0.2226822395658433  0.7978716814032393
  0.4546294116212691  0.1637707515462231  0.9574477240185979
  0.3825808866116086  0.1414305912295356  0.8024499067441300
  0.9321298489490391  0.3173185468375567  0.9350935422311807
  0.2838428899297226  0.8416638013320525  0.0145139037790974
  0.0643704147261940  0.4772062255784639  0.8027058916883647
  0.2668723784547952  0.5521596745515355  0.0109919641406391
  0.0879026057809563  0.6382429661869359  0.8710048860228182
  0.5791220412958821  0.3692378957191361  0.6414030584489321
  0.2124675955599719  0.8698399748893046  0.6803700650235480
  0.3263553847708107  0.9513961754521276  0.8523309613215703
  0.3090911042344461  0.0948662407691226  0.8943144538481456
  0.2500728931688006  0.5962413494301723  0.6564636806996683
  0.6152877232202255  0.6646044586806000  0.0694744320471352
  0.3790863807018496  0.5738666345910806  0.8163353998417414
  0.1244953438157400  0.9364846500884946  0.6979128742062513
  0.4698856665088647  0.5611118075970547  0.9434790306677285
  0.9270136875953698  0.4934278915247374  0.8142296066718953
  0.7088907608592983  0.2209155548617517  0.6914825095424328
  0.7853866681116695  0.1454005354140566  0.9578517547562950
  0.7805109235000744  0.8145170810913317  0.6743078725294053
  0.3601554886769985  0.5632314944586800  0.2448715129702821
  0.0278197018307180  0.0946679706137825  0.0071882117621593
  0.8410293716820006  0.5092452431973582  0.2665559698014718
  0.9311699690717983  0.3526974777958940  0.0205229456533823
  0.5733993385708667  0.7453710534610311  0.9055790969727906
  0.7168674764951823  0.5487567286379429  0.2134993161362051
  0.7621532522284656  0.8819149772919862  0.9456386632711037
  0.3850022506425200  0.3868047108483960  0.1142396724810669
  0.5274949604292402  0.3832180619258250  0.0657841230921959
  0.6137556896953508  0.2905127354156118  0.1094850941931895
  0.7221328822629077  0.4224744320094079  0.9545890856100162
  0.7324924248325761  0.0563831795476083  0.7072142218589959
  0.7783740561761541  0.0859513861902701  0.1045467525401847
  0.8139549240214157  0.8975827986885599  0.8431762575816713
  0.5619524323593132  0.8170579333713812  0.0120169354300151
  0.4466616215029372  0.1279677792730011  0.1361859011053294
  0.6770246300726397  0.5425509209840984  0.0510435423414473
  0.5926704511949313  0.1100303319994344  0.0832109405227245
  0.5570529552460889  0.4627219624465096  0.2403823364160951
  0.3399499238982711  0.5774563660812394  0.9142402947792355
  0.0617931871755778  0.7913441636444694  0.8424573503062742
  0.4988074621625799  0.9390511990898807  0.0844679890515006
  0.6188156830575586  0.2429620182038756  0.9090305960424130
  0.5259838661900572  0.3234514772115926  0.9903701786359203
  0.9575264620060222  0.5692027237230033  0.0317963173721767
  0.9676487769197883  0.5190800812153972  0.3384152074931755
  0.2406646803057395  0.6981837809704222  0.9670431482377724
  0.8578961571850988  0.3963054272266505  0.1736614800372239
  0.4777607734635204  0.9341020820517006  0.9871353908149187
  0.6312342855539733  0.6958863895102769  0.9719860137258799
  0.3669220634098649  0.0341963663711457  0.6767128588853224
  0.7854906775552237  0.1941444680379274  0.0399733759119212
  0.7798003302789742  0.0286256819433295  0.9074563356501931
  0.6566143271384927  0.9330142294218708  0.1031343229303564
  0.1912307362941205  0.8262098541388836  0.9229179433976671
  0.7329283374604174  0.8920950512550222  0.7522514432513314
  0.0689643604197392  0.8671161805308637  0.0638181779327439

 -0.23861041E-02  0.17441817E-02 -0.58850728E-02
 -0.54523114E-03 -0.29232503E-02  0.10731780E-01
 -0.43780473E-02  0.53905374E-03  0.41468045E-02
 -0.44949504E-02 -0.59485337E-02  0.89222275E-02
  0.47841723E-02 -0.87285307E-02 -0.26063636E-02
  0.12076521E-03  0.23107013E-02 -0.65204342E-03
  0.20243198E-02  0.31099430E-02 -0.30702691E-02
  0.29219368E-03 -0.29443461E-02  0.89480629E-02
 -0.15857370E-02  0.52694510E-02  0.72965694E-03
 -0.67941155E-02 -0.87333237E-02  0.22876506E-04
  0.50616657E-04 -0.21007846E-02 -0.71256483E-02
 -0.10302677E-01  0.10496024E-01 -0.72497416E-02
  0.50995674E-02 -0.23405329E-02 -0.97350701E-02
 -0.45053510E-02  0.61378038E-02 -0.13657215E-02
  0.78175840E-02  0.11414571E-01 -0.48012452E-02
 -0.26190937E-02 -0.70020613E-02  0.57752648E-03
 -0.44447980E-02 -0.64716853E-02 -0.65358306E-02
  0.88713079E-02  0.14101126E-02 -0.21298086E-02
  0.20452454E-02 -0.11044224E-01 -0.73509618E-02
  0.95186828E-02 -0.13237627E-01 -0.21610351E-02
  0.25035875E-02 -0.12106712E-01 -0.47400590E-02
 -0.10071126E-01 -0.40056443E-02 -0.13979512E-01
  0.40510594E-02 -0.66219027E-02  0.12151567E-02
  0.27554656E-03  0.37462408E-02  0.41100385E-03
 -0.96858731E-02  0.35685419E-02  0.10583312E-01
 -0.60165903E-03 -0.73813436E-02 -0.93641094E-02
 -0.48982867E-02  0.38277429E-02  0.41605187E-02
  0.50260469E-02  0.39793339E-02  0.17480335E-02
  0.92790238E-03 -0.54470376E-02  0.15395632E-05
 -0.35976406E-02 -0.85668026E-02 -0.49747241E-02
  0.74669005E-02 -0.46244483E-02  0.69445412E-03
 -0.47695950E-02  0.63924395E-03  0.46290441E-02
 -0.15673884E-02  0.27276806E-02  0.25346989E-02
  0.35316080E-03 -0.29001508E-02 -0.96820219E-02
  0.51295705E-02 -0.37261323E-02  0.97438892E-02
  0.68433527E-02 -0.14548273E-01  0.32669009E-02
 -0.61286438E-02 -0.29973280E-02  0.19183884E-02
 -0.10963699E-01  0.32971652E-03 -0.49427114E-02
  0.15845178E-03  0.13220073E-02  0.14574569E-03
 -0.43898935E-02  0.41630395E-02 -0.49909752E-02
 -0.21830818E-03 -0.31074496E-02 -0.69948659E-03
 -0.48332081E-02 -0.27933230E-02 -0.16498586E-02
 -0.16412207E-02 -0.18501823E-02 -0.65660017E-02
  0.13815364E-01 -0.12000861E-03 -0.24402507E-01
 -0.58222268E-02 -0.10659165E-01  0.44398455E-03
  0.63508945E-02 -0.90013096E-02 -0.39199489E-03
  0.56747664E-02 -0.11365779E-01  0.26660752E-02
  0.14562522E-01 -0.82118924E-03  0.13357055E-01
  0.10103259E-01  0.86955085E-02  0.40304891E-02
  0.38997362E-02  0.78061978E-02  0.12498937E-01
 -0.65359171E-02 -0.14180119E-02  0.31332492E-02
 -0.73470904E-02  0.29780786E-02  0.51465759E-02
  0.17480258E-02 -0.23297560E-02 -0.18923628E-02
  0.12838083E-01 -0.91524118E-04 -0.74828765E-02
 -0.54593970E-03  0.98568616E-02 -0.28108242E-02
  0.45027483E-02 -0.91061269E-02  0.12609041E-02
 -0.51946363E-02 -0.34133695E-02 -0.39060630E-02
 -0.52820710E-02 -0.17425394E-01  0.94642364E-02
  0.10966580E-01 -0.82999549E-02  0.11434934E-01
 -0.90309551E-02  0.40141778E-02 -0.78129468E-02
  0.14719484E-01  0.22729933E-02  0.81303436E-02
  0.11204609E-01 -0.59675108E-02 -0.45681939E-02
 -0.65411540E-02 -0.28047875E-02  0.64341792E-02
 -0.13442522E-01  0.34942491E-03 -0.10442911E-01
 -0.26198436E-02  0.14747801E-01  0.80747182E-03
 -0.64807367E-03 -0.18284377E-03  0.74275962E-02
 -0.52330179E-02  0.11310847E-02 -0.17903810E-02
 -0.47059094E-02 -0.30455802E-03  0.25799830E-02