super cell                              
   1.0063464274213869     
     9.5160698588808970  -16.4823164839565095    0.0000000000000000
     9.5160698588808970   16.4823164839565095    0.0000000000000000
     0.0000000000000000    0.0000000000000000   31.6698960700000001
     432
Direct
  0.6554912715112419  0.0374916935653145  0.1711087594818904
  0.5641319528767487  0.3443599835965449  0.1107321561284591
  0.3511788841713042  0.2297628992530484  0.1848718511952145
  0.9483348230083044  0.7154307832261056  0.1063306505907506
  0.5526791663363165  0.6718859461588378  0.1475069167816107
  0.0004483444079391  0.4730397360712992  0.0819890198468000
  0.1696561183372403  0.1295278149809922  0.8533658884740120
  0.0183752063626637  0.0748390223499679  0.0683273462020942
  0.4107976383892091  0.0918360322735224  0.0549040961045080
  0.3083439446293773  0.3368512048815717  0.1310549898752174
  0.9429372813549480  0.3779829304444664  0.2313192858205761
  0.8003379455794641  0.8130776567010299  0.1593506495231826
  0.0897768033779411  0.4938180231628694  0.9968638982979025
  0.2424205513639907  0.8745053826728596  0.1332372228126493
  0.2686013321134268  0.2285183127730121  0.9379410932503770
  0.5387653828362412  0.6613279164705073  0.8907443144918233
  0.9658026420858241  0.3918969254115016  0.8131590850141466
  0.8504461720103642  0.4348315271636126  0.0630591590732839
  0.9811509794283892  0.5052542991034492  0.9619270757161686
  0.7280396084503362  0.2525706117334546  0.1053858479232171
  0.2420121253426454  0.3556016164142901  0.9598323400264042
  0.4346009157128524  0.5833152650725301  0.0738582454676890
  0.9959885981998694  0.5037568281529153  0.1748818367130471
  0.6008259960299939  0.5118850435065210  0.8184157366421685
  0.8809635297516603  0.5551948376821535  0.9873968398562681
  0.1799077759754190  0.7051507728463015  0.1960337429480921
  0.6198828151462831  0.7540747286006423  0.8227586856981692
  0.6734901918733505  0.5021457647043198  0.0685339542447317
  0.0246480153586132  0.7790937694614259  0.8028592126514299
  0.5552359361194139  0.4954415690703269  0.7329518518513302
  0.9365267866680094  0.8525449106818124  0.1191468943881504
  0.8726357161848093  0.7006612738190118  0.9962774856098269
  0.1500021268617531  0.9312269572056323  0.9931525852354184
  0.6913549266077416  0.7985654043227212  0.0323487695385148
  0.7965244921464135  0.7350701287918948  0.0762945632028808
  0.7352698855886787  0.5578884486957030  0.7889125600361360
  0.0973060333858908  0.9143195929021337  0.1726835322519334
  0.5672820705010437  0.8594514190761824  0.0383508547112963
  0.3025412774532751  0.0271902820901229  0.1581642195122648
  0.3969891306225730  0.9854765888229187  0.1029849275745140
  0.8595256293769216  0.8933786307422068  0.0234820323194428
  0.8298305258207788  0.3463405154826661  0.9892532080124049
  0.7279870831462455  0.9297471163404372  0.9667922633854149
  0.3070599601137327  0.3607570479167336  0.3455709984501711
  0.6155049634119772  0.3309847469751822  0.3076256636577829
  0.4761894925735889  0.8821701049934296  0.2715464140495475
  0.8944949380466124  0.1139518100336479  0.0125604907317122
  0.0610943851869722  0.2088584235259306  0.0150482417966189
  0.2112467213912912  0.5660064733026079  0.1931406478729411
  0.2441306394491448  0.5202313327793380  0.0668362547941059
  0.0935254882041301  0.3677863569699263  0.9795014712961304
  0.3939234171009639  0.3479121155038080  0.2564189724533208
  0.8819457118839699  0.7193261888309822  0.3813035902287676
  0.8332642906756881  0.9822237154140623  0.1707869777828441
  0.8079008453752206  0.5852585899080323  0.2759683549899119
  0.1409803765636424  0.5339812393474832  0.1162948509216070
  0.0319664997149333  0.6388730834106355  0.1459828288335647
  0.3086044248331827  0.9837170731356027  0.9947790816105081
  0.6201719151997475  0.4480462102857611  0.9507663468040534
  0.7291880356714469  0.4202450609973508  0.2464612940190689
  0.3234171680010703  0.6876555616818699  0.3510213937860880
  0.6556209045947534  0.3185274107272407  0.8970754050909128
  0.3727991191829479  0.1886880101132896  0.0890219735625736
  0.6766466071555876  0.9943980749540838  0.9112801938405506
  0.7480733963269498  0.6192673624164352  0.2171331227332230
  0.3679980982100568  0.8064743103997398  0.2099549588071884
  0.8464345509199950  0.5908853856418114  0.0590176941364630
  0.7712495429057123  0.2016134291301748  0.2810873401376358
  0.9340785627875610  0.5878859411072379  0.8975279908119840
  0.8571511424594386  0.7486525133237835  0.8281601977561193
  0.4743079888354535  0.7775826016151050  0.1083003179082061
  0.8570657249107494  0.9105395662746654  0.2371574665383029
  0.0185343608987003  0.0033535944779449  0.1764703178337926
  0.9547926224128681  0.9404075636829751  0.3119470885281755
  0.5524353974695454  0.8623141755810125  0.1905021765736915
  0.5525699178541348  0.0121613911537881  0.3366589291219362
  0.5565001614578429  0.9608587393653555  0.0929151638154642
  0.0465140215085415  0.3606388954099979  0.3067617722218094
  0.5743924623574823  0.1061588763883170  0.2419678803205001
  0.2991161750465292  0.4029785951532549  0.2339755061756447
  0.1399753023838448  0.2513102226478025  0.0772492477121389
  0.7352081395969100  0.5891078935002461  0.9536487975616907
  0.5888482827008787  0.5978363049264831  0.3262798811840381
  0.3751910175170288  0.9286801248377867  0.4600209128429919
  0.1438970819257585  0.8120175186749812  0.0636248856425320
  0.3095571772887693  0.5191854391268148  0.1487269933372814
  0.2774650386526165  0.3885863043602951  0.0701201416964757
  0.4580035526142562  0.8295044913296253  0.3515782553161514
  0.0066622092344372  0.1199711615297625  0.2420504347889350
  0.6455075312399946  0.0124901848009060  0.2534864233183631
  0.1725240399023065  0.5132551334842633  0.2837270097100498
  0.4923719632856856  0.4756884957355694  0.1032834563983010
  0.4000883617271452  0.6804042388070484  0.1778661831449567
  0.1964623676823108  0.3711550982344927  0.1463436138592613
  0.6631786384175808  0.6134972225444798  0.1232744038146151
  0.8750725096378128  0.8367127734099357  0.4424738541912661
  0.1693957177997929  0.1554017134739498  0.1454303797722563
  0.1752862546848432  0.7117863370200117  0.1047854182246717
  0.0181204107488233  0.1778655725034607  0.1398320596142830
  0.5776654037425346  0.0881511234417000  0.8833434569506902
  0.2801385544096144  0.6464943025196440  0.1265436488015473
  0.8797662763003834  0.7664935193926616  0.2068765856839266
  0.2329318477729133  0.9969330899089128  0.0744568543667860
  0.0278066502389763  0.7416596614509310  0.2222578894790067
  0.0648160308924932  0.8639021986213065  0.3466627560608379
  0.1806012791568190  0.2462442094696382  0.1968262223319595
  0.8210494125881521  0.9913495061146944  0.2865578584043498
  0.3752820014160164  0.8762819614470788  0.9779343527040812
  0.8305831029043219  0.7733730934074058  0.5229909121399663
  0.7725566647576605  0.4840370122199820  0.3472783969000099
  0.6051450527857505  0.2928649737014830  0.3818608982013132
  0.2990905943453116  0.1859358222626211  0.2825696144512559
  0.5090159154620509  0.9835924824233704  0.1718200472124933
  0.3577596718463836  0.8247034675211714  0.1305393847276232
  0.3694673475606364  0.5184358338022159  0.5087564646783920
  0.3778181445557062  0.5316211906321093  0.3448100668584196
  0.3416458407091807  0.4065313280130838  0.4383696848370078
  0.5045223281394728  0.6774076859011090  0.4782272336035725
  0.7779872945514942  0.8998197615722733  0.4681094136636499
  0.7044877067761571  0.5969659492963322  0.4298478091772296
  0.6612515979887713  0.7475831329592826  0.4088979322745059
  0.4003618898134609  0.7259450133974833  0.2685307298371041
  0.1989558332444041  0.4115547750923292  0.5070434485849500
  0.5418603583023803  0.2945628870283815  0.2033105604910951
  0.4837557325611974  0.1196131952812446  0.3239665135281073
  0.1908557672906059  0.4579050064558880  0.8274839606347967
  0.4208717415807712  0.2049902897638246  0.3333728030359429
  0.0582879232050040  0.4141649021102948  0.1666880603590830
  0.0962016709694855  0.6018829508695193  0.2693814211239116
  0.5918079500688492  0.5625661914425215  0.2273458435237790
  0.4380636674751734  0.5264943762960874  0.1937367107016238
  0.8858178846279281  0.7201802183190406  0.2971618541714807
  0.8335457337695644  0.3732965867302876  0.1744083938063876
  0.1317534522900683  0.8173831886267385  0.2713784653312694
  0.5368878179867506  0.9028355072354960  0.5615972281361744
  0.1150198930878389  0.0209330981854711  0.1051761258543351
  0.5916936730838201  0.4386038295572720  0.2686446951643005
  0.7249325205647380  0.3811848829273473  0.1358499452244094
  0.1814782266340610  0.0059206163511452  0.3234186051901195
  0.1980134370288926  0.0610763273275120  0.2109380909158791
  0.4084227490431491  0.6362024724648422  0.4098444717971021
  0.5547942373422957  0.7150143208868522  0.3338420925618869
  0.5613353859090292  0.7146982703208709  0.2279343852266628
  0.1343862499744372  0.3648307752543116  0.2154357640540657
  0.2682726445136849  0.4801754693187815  0.4328128440274012
  0.4622048991852748  0.5047698069783059  0.2775606672077125
  0.3476683197465144  0.0819053932798392  0.2480216274193875
  0.3809625405328684  0.9114509592231195  0.3664486417982192
  0.7013224742817384  0.0441251331450144  0.3324796701853205
  0.9724677204583497  0.0256303930746122  0.4081315178921395
  0.9448865913708219  0.2515922614295122  0.2497176162605337
  0.0433212653146807  0.2017005051899725  0.3336655546116746
  0.1879871975838485  0.5539292514860242  0.6814097798531256
  0.0489804457483973  0.3985878651740275  0.4077321457163408
  0.5568174707333295  0.6420415457795655  0.6877852073211491
  0.7795901576054579  0.8106089667490697  0.3378988806585549
  0.9970730262478849  0.9697833713713270  0.5520817482704947
  0.1910928584644338  0.2220591481117936  0.3769344458866368
  0.0498680943456510  0.3604985383055398  0.0629023946557546
  0.5084535805297080  0.4993326060037768  0.5123135028997007
  0.0091741240971114  0.5083422376515139  0.3549903825739105
  0.6535367170477103  0.2546717063258928  0.1860310474236348
  0.2449121642340418  0.8981125045709718  0.2211076962931153
  0.0066764839686194  0.6158960680298499  0.4308915894774674
  0.6427137697987299  0.4060067179516235  0.4949716510444601
  0.8014467933204246  0.4762061386385339  0.4371859949191723
  0.7418971503433885  0.5669823067539607  0.5107037682866538
  0.4658324100336761  0.4038856083435950  0.1901020759284652
  0.5230449582361901  0.3681364005883957  0.0449301809197475
  0.8208110259659323  0.4448532434330364  0.5400949553933241
  0.8995191495694744  0.3445027666758544  0.3233820889732335
  0.7360386385502177  0.7426956981315080  0.2523621771386447
  0.8885542133771244  0.0196715268203073  0.5172064200255481
  0.8978552350687070  0.2156426768288416  0.1551834399398165
  0.2917665453455609  0.8016157710795752  0.5452564428359374
  0.7317860192708719  0.6134481722955173  0.3431225380764616
  0.2341223305235853  0.7245060262711717  0.4021482954009538
  0.4096008154916846  0.7562392691876118  0.5188300118204602
  0.6121794775749847  0.5018568022992969  0.5743113781848287
  0.0861905945367195  0.0806085224496267  0.3292874101892653
  0.8187124376513858  0.9712277387525957  0.6125239621726899
  0.1961285713151829  0.1775228329280845  0.5295797318617935
  0.3241113764437782  0.0111760749316253  0.3372688208133755
  0.5997015765637426  0.8551566428484813  0.2717946129305590
  0.2110634790542161  0.4031473432966498  0.3041623646326348
  0.7245664534001374  0.8917297127571917  0.2184373097365525
  0.3432768809379648  0.2154050488391890  0.5071657815285272
  0.9861771420826977  0.0225803202840442  0.6406427088637683
  0.6156084612551744  0.4166528304228974  0.6562832402993769
  0.6104472107601336  0.9831271968226367  0.6532687279055241
  0.5317865087063046  0.4222824605039081  0.4404956674850437
  0.9642519850946979  0.2580624297869827  0.3625493585941022
  0.2849617195334531  0.6254332937755332  0.4516190960904858
  0.4227095957894350  0.1385698586605741  0.5754995939966481
  0.8054548522930584  0.0880643068789021  0.2184451230707560
  0.4499513753525808  0.3823818438125042  0.3463090951623346
  0.5601195695181845  0.2631814254453125  0.6502992568863959
  0.7540787280684261  0.1921916543052987  0.2000549021493696
  0.7896528852033561  0.3419535868756677  0.3535217562977234
  0.3755479814515311  0.7932728864451556  0.4428359498068055
  0.3811924847746588  0.7454858428860680  0.8320528478418967
  0.2829256077315854  0.5765281057528920  0.5342938433314713
  0.9225801305221161  0.6174587333527820  0.3472526741144026
  0.6022257101529210  0.8704601571352009  0.3759695226893615
  0.0780562521015597  0.6950263207448131  0.3547566459223145
  0.8472083462671277  0.1754238832735645  0.4624439056689149
  0.2623389427635294  0.8210592715656329  0.3004815540626593
  0.0902544128361588  0.9383315992211611  0.4730271882388679
  0.3878690120323061  0.5688373635585598  0.6117324852020488
  0.0810400209891598  0.0325938723676715  0.2545399098499935
  0.1821587592024780  0.0473391853178202  0.4222199054368137
  0.5660487124867584  0.1361555530155352  0.5358430179385210
  0.1324937167097278  0.7373522869897999  0.5095935563518312
  0.7715899877770553  0.9270550915764135  0.3858520812932198
  0.9124850765814879  0.4297995956359674  0.4333607059036387
  0.3917967881396774  0.0040870930794285  0.5454797229494023
  0.0827563241157394  0.2585552834128311  0.5040068685308008
  0.5170755742545351  0.1011826271866927  0.6681153755050848
  0.6726577839015301  0.2848768463916408  0.4594875730219714
  0.0611101020501502  0.0874889991221739  0.4755801527813101
  0.6855960211056551  0.1491483230272511  0.5106229775001718
  0.9599850313538109  0.1477264504855857  0.4410958271345675
  0.5591182357937178  0.9809525060594995  0.4736676661443526
  0.9670974761699527  0.2974270451729595  0.4895140168555153
  0.2185061082995870  0.2589874898881878  0.4571305057903412
  0.6993613646912732  0.0089309167153215  0.5003230959506701
  0.6121507720214946  0.4534077913469658  0.3625965625237646
  0.1656967744032264  0.2556316486619605  0.2787933895564254
  0.8320752276305963  0.2294729444470094  0.6017202111431310
  0.1648622221270939  0.6023226102790528  0.5192382355017152
  0.4503327764312244  0.3341204566746420  0.5787671480393307
  0.4344123817125390  0.9182819415635588  0.6991031171112053
  0.7299128372240419  0.0474179611309518  0.4186682660041455
  0.3034356629769196  0.6883033025317808  0.7540987642417520
  0.9596014860355510  0.8265829416473938  0.6047130625264227
  0.1228165775295953  0.3067955771618832  0.3915262976699510
  0.3724217760878373  0.6276902877548599  0.7016903244619770
  0.1399138328871972  0.0099942175430542  0.7757976961438589
  0.3267615165821529  0.2115112761763985  0.4004712729067109
  0.7091679972264828  0.7238758323491096  0.5725996807724514
  0.4021688887785348  0.9700157512581257  0.2522365042695695
  0.3779536976021475  0.0776195513665957  0.4406361127210416
  0.1953156874894308  0.5191903035100874  0.3627845818965901
  0.7032029611616964  0.6207802125139104  0.6309078109120086
  0.2050613366723102  0.6255333164326854  0.8341124874314521
  0.5033883584413505  0.5444763060468444  0.4029455629068416
  0.4330045845834782  0.1521579614320368  0.6802203374982703
  0.5467009499087776  0.9284991967145543  0.7873146070002871
  0.5922865874040505  0.8361338052406585  0.4989162106675659
  0.6654328677155688  0.1929866389454096  0.3264805968282733
  0.1182451722244405  0.1870982206279504  0.6073314227725179
  0.2017806514259032  0.5082154119634842  0.6003977291736494
  0.3898902063901618  0.4486959081646856  0.6805838197145203
  0.3151028030982734  0.2110275182848334  0.6209691470258084
  0.8634330355339178  0.6330297522071654  0.5892616184263679
  0.8672839949152004  0.2524377906086089  0.7321608108556537
  0.6118622485088249  0.6703359078405040  0.5128289618560046
  0.0003652649118263  0.7811364084150706  0.5291450167401726
  0.2521272585644426  0.3674902226195363  0.6040576320784076
  0.6661925009350179  0.2377734577933710  0.6637602356351415
  0.1142696295408784  0.5394124181094216  0.4362364738536866
  0.8200442913865121  0.3365121858727331  0.6683648574823496
  0.7982149976828096  0.2688978791293822  0.4214186581544604
  0.6189718249780913  0.3238676939691206  0.5769024087611996
  0.4857232295063857  0.2537181671651240  0.4280561204587681
  0.0251868938122231  0.4494438727966897  0.5513428103650483
  0.8396101992723943  0.3170952125356232  0.5074740737235054
  0.7558003956621858  0.2955669188031719  0.5786429501761486
  0.6436406556968483  0.1013287155094975  0.6114488990825804
  0.0544459387875480  0.6296510115568061  0.8132041648121224
  0.5374410874051987  0.4905342499635864  0.6426069039178282
  0.3194009301161466  0.3614762013970892  0.5283810183667464
  0.2731424873868290  0.7350453841121346  0.9018099689130756
  0.0314270782060690  0.0969471439622961  0.7885940099713268
  0.4921035733800936  0.2670174677317331  0.5137933809195386
  0.2854961242357235  0.0356819938281017  0.5213438635608862
  0.0709043581083383  0.7831629081043568  0.4462664775496650
  0.8993661693187144  0.6634001251208113  0.4603478860739746
  0.1997298515189244  0.8422600480065251  0.5867357182492412
  0.6129087026292008  0.8259360659300419  0.6171379074126631
  0.4297919900779898  0.0218244056858810  0.9420118302662428
  0.0033863639014219  0.5678365988659388  0.5191492826007589
  0.1355090412736718  0.6595325326675935  0.6389899766539062
  0.7195302689762332  0.0150085583794427  0.6035193610798877
  0.3987335500689648  0.6725751388725368  0.9225017285516761
  0.4593022281107929  0.0415651546606619  0.7931529093293702
  0.7227215942280656  0.5005126969354190  0.8805041856468233
  0.9628152051405002  0.9066983091234667  0.7449041268218253
  0.8256942469002345  0.1433491720028262  0.5544185278736307
  0.0293126298238522  0.0529498423795462  0.8915384074198958
  0.0980341123215320  0.2485221866296611  0.7152346522925889
  0.7523217333498148  0.4567012479849276  0.6094639462042267
  0.8809674749177706  0.1041886097292243  0.3584661181926188
  0.6040292093571360  0.7628257575580548  0.7378010938886844
  0.2280598427371379  0.2456546421025105  0.6606456437837477
  0.3160864407258181  0.5458614053616129  0.7798672895498269
  0.7736971360741670  0.1218125954189935  0.6762300213835070
  0.7199671119451478  0.2216749940009956  0.9227478947157570
  0.8224765202280510  0.9337604129860145  0.6868926653083782
  0.5701939057058060  0.1319846071678821  0.4405672671119032
  0.2493279679332270  0.3816040566215702  0.7177757794078438
  0.4468075424819444  0.8964646300386735  0.8973387468302055
  0.9904412185981947  0.8911317973035410  0.9621455103252957
  0.9265896897109273  0.4944998701757367  0.6028085386936016
  0.3406335115164332  0.2094756857432852  0.8017710391773150
  0.9259665505828566  0.6728267047223847  0.6801213195133861
  0.5003079959493069  0.8114365994652805  0.6999898734686126
  0.2930363155383518  0.7482322633057257  0.6776449711494887
  0.1598320575454566  0.7023877677584829  0.7480245223364138
  0.2229843285699452  0.8785259563398339  0.4823997629322915
  0.8624868500285612  0.4139427825738836  0.9116004548349963
  0.2149535825477888  0.8700232981139605  0.3850507489779442
  0.2549263606834497  0.1553990096654352  0.7224417578768970
  0.2190318204207782  0.8079165727236244  0.8407341251540982
  0.7860188091081691  0.2947583939413211  0.8005172785624642
  0.5286824445925321  0.6250737218888942  0.5910297166762677
  0.8472426532594589  0.6882098945860622  0.8990378844205484
  0.1438830576181230  0.0675846953719362  0.6166235131104963
  0.2832017074214125  0.0196975481239832  0.6424601354778855
  0.7246903651866275  0.8817311337375450  0.5480657014107536
  0.1340453797283816  0.3668883885204163  0.6639693639948525
  0.4970399922308129  0.5991240653652555  0.7720094002233716
  0.7305198313577681  0.7941197573825588  0.6800481615172553
  0.8283853263150222  0.0573461659088828  0.7288086375418739
  0.0918351184414952  0.0920703448387193  0.7078735668502378
  0.1465389684737997  0.8625992881440575  0.7460523141954450
  0.4708365486090851  0.1808429443667148  0.7836855703946525
  0.5973486671003142  0.1783153811455830  0.8302112215945535
  0.8524204334348983  0.1849568560174774  0.8672852537784508
  0.7120067407209960  0.9723274939600034  0.8259325506643885
  0.1249337326305913  0.2137355319948560  0.9256742259652072
  0.9010441087286472  0.5262836141163885  0.6817173526124939
  0.6937537128398397  0.2725926309393485  0.0187622882370147
  0.4518057227078868  0.1583995941885741  0.8762026069655252
  0.9635170667049243  0.1729738303378819  0.7830883820064751
  0.2607187160483930  0.3135965989274785  0.8656991620306527
  0.0023511418912604  0.1739909448783728  0.8666034412962061
  0.4303032466877945  0.4014438671751577  0.8735733531218842
  0.6146332911225336  0.3727968486758025  0.7383633888959342
  0.1292017328426843  0.9174857723170882  0.5907785806835641
  0.8014244205099281  0.9609448222415902  0.0727311664789215
  0.8914593462197103  0.9886239821877116  0.8198400276996746
  0.1326841910221109  0.3738463288524484  0.8846216993148898
  0.9501985390111948  0.1227993545795277  0.5663617918653114
  0.2148469080676528  0.5047493885096380  0.9262643573697713
  0.3471856990152508  0.4269905544738026  0.8111039723113113
  0.0376010092462596  0.7378977405406771  0.6119542045008002
  0.8924829299269709  0.5505730514242539  0.7728402344606269
  0.9181241095476260  0.1918909124567136  0.6446980219779289
  0.7634900244852982  0.3605863619483525  0.7393578339654304
  0.6100910818079091  0.0862691037325538  0.7316603990522703
  0.4077305270572074  0.7414180466057880  0.0344086764060235
  0.3970689274630418  0.8978540903524970  0.6125748638501817
  0.3351877036120480  0.8392424231781643  0.7750588137470338
  0.5411445827985761  0.8238006234295384  0.8591962619264703
  0.1096040548036222  0.0551786958580500  0.9628433081337709
  0.6091121651776518  0.2255180654016168  0.7400180743102104
  0.8487653182853188  0.7788932808845546  0.6693673566938759
  0.8719930208084274  0.6946269660374967  0.7376514246006523
  0.0973403129313110  0.2858489423707707  0.8133412437097998
  0.7738701794411007  0.5279082340714325  0.7041864017015429
  0.0172747843140075  0.7191236038100466  0.0148102953244354
  0.9786620997958355  0.8678491845195282  0.8625055022981373
  0.6225199042854161  0.1148986556304340  0.9784504458849873
  0.7676010365636412  0.4429293003406025  0.8141181330249344
  0.7205046433021558  0.7077786767618985  0.8626976960235144
  0.0182367420309728  0.4731239837835046  0.6521484101932817
  0.1799817994783355  0.9307352566314954  0.8740385605822822
  0.2260832241683854  0.1349053188960311  0.0479134574765366
  0.4794107026303502  0.3752563284805927  0.7952501804688301
  0.0385098816552291  0.3724204683412320  0.7397416395890297
  0.3698993927981458  0.5429224816005661  0.9857659295668303
  0.0661398279966914  0.4874719276085747  0.8921993116331473
  0.0726974744480251  0.3265414266476695  0.5892591937761280
  0.2721937016434307  0.2903157317476405  0.7772382113802010
  0.4045518918425748  0.2101337402066544  0.9922954236678075
  0.3097442698498994  0.0505400076531308  0.8072704822350134
  0.9606238882445548  0.3233702647665231  0.9268748893634607
  0.3281803092910088  0.8317982141951163  0.0483758051351935
  0.1156526807805945  0.5435561510777873  0.7623123511997273
  0.2513851216194348  0.6129627330633882  0.0036867326881920
  0.0994564186530035  0.6621677868993713  0.9041403855303102
  0.4322222494270931  0.3084034006282937  0.6869472004298574
  0.2449086065427983  0.8715271185173251  0.6809472589965471
  0.3461825424053442  0.9564770391275316  0.8706360388109856
  0.3107777312522825  0.0974402403714780  0.9303230867772551
  0.4189885339712782  0.7117543111835902  0.6071408098538760
  0.5523788297025789  0.6742116305641493  0.0231869433356539
  0.3805760957205178  0.6147128444285768  0.8440086328064200
  0.0786083522818087  0.9071149978756893  0.6756953794319859
  0.5808818541752317  0.5660349059025568  0.8994739915433325
  0.9265330975874884  0.4916688729745275  0.8385962099018047
  0.7253534662438408  0.0980193178231649  0.7629737065713941
  0.7976155499089150  0.2060283239858988  0.0004195275818167
  0.6973310119651120  0.6678346637063024  0.7422994285202336
  0.3468355617347759  0.5485421057363600  0.2571606755109875
  0.9444888050310712  0.0295604966256364  0.9623093126630382
  0.8915653362560895  0.5828286990642251  0.2076552859955200
  0.8799710814790468  0.2521402941626079  0.0827427246803222
  0.7221590785850081  0.8761002022324803  0.8851722193091899
  0.8067435165048590  0.6149699976928843  0.1315453140121053
  0.8133222268004626  0.7728549447569490  0.9544424598858418
  0.5128115569206447  0.5207623692489972  0.9954871545803300
  0.3781975457447835  0.3387844347690696  0.0409629572266815
  0.5618806187264191  0.2285782544807400  0.0513474908800760
  0.7164088193030135  0.4437172714133531  0.0028848199811449
  0.6686583355794894  0.9306548523721201  0.7075860198621634
  0.7931850357873006  0.0921440548174564  0.1155519874817226
  0.8661622476505364  0.8951111081002662  0.8877429505045367
  0.5358628567618470  0.7455695224710229  0.9538956966437930
  0.4905514436693664  0.1837169701083254  0.1421038638201167
  0.6682885216367072  0.6402245528889248  0.0344535082475691
  0.5976804665750431  0.1094083906158009  0.1218954595613757
  0.6376435702702966  0.4688167272364819  0.1764078924458574
  0.3187460408837820  0.4648953392150121  0.8845518922829156
  0.0463107929081456  0.7480137719877946  0.9175706973485127
  0.5010416386365012  0.0257391355578124  0.0179595804081337
  0.5476421619116940  0.2315300291274140  0.9624478184759945
  0.4742509326926689  0.3313378101100199  0.9248624528893379
  0.0299307052181775  0.6055860296837836  0.0486558134557326
  0.9032381696765643  0.4738857236763628  0.2757053268085750
  0.1789585592894152  0.7340096285153243  0.0000199930162168
  0.8620057633022995  0.5179103656511007  0.1270596777435688
  0.4987646340712758  0.8569406579141425  0.9706435611503083
  0.6756438190185529  0.7356809073190380  0.9563176192330692
  0.3425560926444575  0.9861636041626088  0.7393995671936999
  0.6836793920980454  0.0407234634590202  0.0281119907716710
  0.8247012424239362  0.0831486998413369  0.9346059197368447
  0.6297744705869038  0.8284684593511834  0.1177398609421989
  0.2259318114953098  0.8910847566924239  0.9320500562078368
  0.7880645612811508  0.8327533580338234  0.7907920053325004
  0.0284551381927998  0.9176635996312997  0.0427645704594190

