super cell
-11062
   9.516069858880897 -16.482316483956510   0.000000000000000
   9.516069858880897  16.482316483956510   0.000000000000000
   0.000000000000000   0.000000000000000   31.66989607
  432
 Direct
   0.055555555555555   0.111111111111111   0.041666666666667
   0.222222222222222   0.111111111111111   0.041666666666667
   0.388888888888889   0.111111111111111   0.041666666666667
   0.555555555555555   0.111111111111111   0.041666666666667
   0.722222222222222   0.111111111111111   0.041666666666667
   0.888888888888889   0.111111111111111   0.041666666666667
   0.055555555555555   0.277777777777778   0.041666666666667
   0.222222222222222   0.277777777777778   0.041666666666667
   0.388888888888889   0.277777777777778   0.041666666666667
   0.555555555555555   0.277777777777778   0.041666666666667
   0.722222222222222   0.277777777777778   0.041666666666667
   0.888888888888889   0.277777777777778   0.041666666666667
   0.055555555555555   0.444444444444444   0.041666666666667
   0.222222222222222   0.444444444444444   0.041666666666667
   0.388888888888889   0.444444444444444   0.041666666666667
   0.555555555555555   0.444444444444444   0.041666666666667
   0.722222222222222   0.444444444444444   0.041666666666667
   0.888888888888889   0.444444444444444   0.041666666666667
   0.055555555555555   0.611111111111111   0.041666666666667
   0.222222222222222   0.611111111111111   0.041666666666667
   0.388888888888889   0.611111111111111   0.041666666666667
   0.555555555555555   0.611111111111111   0.041666666666667
   0.722222222222222   0.611111111111111   0.041666666666667
   0.888888888888889   0.611111111111111   0.041666666666667
   0.055555555555555   0.777777777777778   0.041666666666667
   0.222222222222222   0.777777777777778   0.041666666666667
   0.388888888888889   0.777777777777778   0.041666666666667
   0.555555555555555   0.777777777777778   0.041666666666667
   0.722222222222222   0.777777777777778   0.041666666666667
   0.888888888888889   0.777777777777778   0.041666666666667
   0.055555555555555   0.944444444444444   0.041666666666667
   0.222222222222222   0.944444444444444   0.041666666666667
   0.388888888888889   0.944444444444444   0.041666666666667
   0.555555555555555   0.944444444444444   0.041666666666667
   0.722222222222222   0.944444444444444   0.041666666666667
   0.888888888888889   0.944444444444444   0.041666666666667
   0.111111111111111   0.055555555555555   0.125000000000000
   0.277777777777778   0.055555555555555   0.125000000000000
   0.444444444444444   0.055555555555555   0.125000000000000
   0.611111111111111   0.055555555555555   0.125000000000000
   0.777777777777778   0.055555555555555   0.125000000000000
   0.944444444444444   0.055555555555555   0.125000000000000
   0.111111111111111   0.222222222222222   0.125000000000000
   0.277777777777778   0.222222222222222   0.125000000000000
   0.444444444444444   0.222222222222222   0.125000000000000
   0.611111111111111   0.222222222222222   0.125000000000000
   0.777777777777778   0.222222222222222   0.125000000000000
   0.944444444444444   0.222222222222222   0.125000000000000
   0.111111111111111   0.388888888888889   0.125000000000000
   0.277777777777778   0.388888888888889   0.125000000000000
   0.444444444444444   0.388888888888889   0.125000000000000
   0.611111111111111   0.388888888888889   0.125000000000000
   0.777777777777778   0.388888888888889   0.125000000000000
   0.944444444444444   0.388888888888889   0.125000000000000
   0.111111111111111   0.555555555555555   0.125000000000000
   0.277777777777778   0.555555555555555   0.125000000000000
   0.444444444444444   0.555555555555555   0.125000000000000
   0.611111111111111   0.555555555555555   0.125000000000000
   0.777777777777778   0.555555555555555   0.125000000000000
   0.944444444444444   0.555555555555555   0.125000000000000
   0.111111111111111   0.722222222222222   0.125000000000000
   0.277777777777778   0.722222222222222   0.125000000000000
   0.444444444444444   0.722222222222222   0.125000000000000
   0.611111111111111   0.722222222222222   0.125000000000000
   0.777777777777778   0.722222222222222   0.125000000000000
   0.944444444444444   0.722222222222222   0.125000000000000
   0.111111111111111   0.888888888888889   0.125000000000000
   0.277777777777778   0.888888888888889   0.125000000000000
   0.444444444444444   0.888888888888889   0.125000000000000
   0.611111111111111   0.888888888888889   0.125000000000000
   0.777777777777778   0.888888888888889   0.125000000000000
   0.944444444444444   0.888888888888889   0.125000000000000
   0.055555555555555   0.111111111111111   0.208333333333333
   0.222222222222222   0.111111111111111   0.208333333333333
   0.388888888888889   0.111111111111111   0.208333333333333
   0.555555555555555   0.111111111111111   0.208333333333333
   0.722222222222222   0.111111111111111   0.208333333333333
   0.888888888888889   0.111111111111111   0.208333333333333
   0.055555555555555   0.277777777777778   0.208333333333333
   0.222222222222222   0.277777777777778   0.208333333333333
   0.388888888888889   0.277777777777778   0.208333333333333
   0.555555555555555   0.277777777777778   0.208333333333333
   0.722222222222222   0.277777777777778   0.208333333333333
   0.888888888888889   0.277777777777778   0.208333333333333
   0.055555555555555   0.444444444444444   0.208333333333333
   0.222222222222222   0.444444444444444   0.208333333333333
   0.388888888888889   0.444444444444444   0.208333333333333
   0.555555555555555   0.444444444444444   0.208333333333333
   0.722222222222222   0.444444444444444   0.208333333333333
   0.888888888888889   0.444444444444444   0.208333333333333
   0.055555555555555   0.611111111111111   0.208333333333333
   0.222222222222222   0.611111111111111   0.208333333333333
   0.388888888888889   0.611111111111111   0.208333333333333
   0.555555555555555   0.611111111111111   0.208333333333333
   0.722222222222222   0.611111111111111   0.208333333333333
   0.888888888888889   0.611111111111111   0.208333333333333
   0.055555555555555   0.777777777777778   0.208333333333333
   0.222222222222222   0.777777777777778   0.208333333333333
   0.388888888888889   0.777777777777778   0.208333333333333
   0.555555555555555   0.777777777777778   0.208333333333333
   0.722222222222222   0.777777777777778   0.208333333333333
   0.888888888888889   0.777777777777778   0.208333333333333
   0.055555555555555   0.944444444444444   0.208333333333333
   0.222222222222222   0.944444444444444   0.208333333333333
   0.388888888888889   0.944444444444444   0.208333333333333
   0.555555555555555   0.944444444444444   0.208333333333333
   0.722222222222222   0.944444444444444   0.208333333333333
   0.888888888888889   0.944444444444444   0.208333333333333
   0.111111111111111   0.055555555555555   0.291666666666667
   0.277777777777778   0.055555555555555   0.291666666666667
   0.444444444444444   0.055555555555555   0.291666666666667
   0.611111111111111   0.055555555555555   0.291666666666667
   0.777777777777778   0.055555555555555   0.291666666666667
   0.944444444444444   0.055555555555555   0.291666666666667
   0.111111111111111   0.222222222222222   0.291666666666667
   0.277777777777778   0.222222222222222   0.291666666666667
   0.444444444444444   0.222222222222222   0.291666666666667
   0.611111111111111   0.222222222222222   0.291666666666667
   0.777777777777778   0.222222222222222   0.291666666666667
   0.944444444444444   0.222222222222222   0.291666666666667
   0.111111111111111   0.388888888888889   0.291666666666667
   0.277777777777778   0.388888888888889   0.291666666666667
   0.444444444444444   0.388888888888889   0.291666666666667
   0.611111111111111   0.388888888888889   0.291666666666667
   0.777777777777778   0.388888888888889   0.291666666666667
   0.944444444444444   0.388888888888889   0.291666666666667
   0.111111111111111   0.555555555555555   0.291666666666667
   0.277777777777778   0.555555555555555   0.291666666666667
   0.444444444444444   0.555555555555555   0.291666666666667
   0.611111111111111   0.555555555555555   0.291666666666667
   0.777777777777778   0.555555555555555   0.291666666666667
   0.944444444444444   0.555555555555555   0.291666666666667
   0.111111111111111   0.722222222222222   0.291666666666667
   0.277777777777778   0.722222222222222   0.291666666666667
   0.444444444444444   0.722222222222222   0.291666666666667
   0.611111111111111   0.722222222222222   0.291666666666667
   0.777777777777778   0.722222222222222   0.291666666666667
   0.944444444444444   0.722222222222222   0.291666666666667
   0.111111111111111   0.888888888888889   0.291666666666667
   0.277777777777778   0.888888888888889   0.291666666666667
   0.444444444444444   0.888888888888889   0.291666666666667
   0.611111111111111   0.888888888888889   0.291666666666667
   0.777777777777778   0.888888888888889   0.291666666666667
   0.944444444444444   0.888888888888889   0.291666666666667
   0.055555555555555   0.111111111111111   0.375000000000000
   0.222222222222222   0.111111111111111   0.375000000000000
   0.388888888888889   0.111111111111111   0.375000000000000
   0.555555555555555   0.111111111111111   0.375000000000000
   0.722222222222222   0.111111111111111   0.375000000000000
   0.888888888888889   0.111111111111111   0.375000000000000
   0.055555555555555   0.277777777777778   0.375000000000000
   0.222222222222222   0.277777777777778   0.375000000000000
   0.388888888888889   0.277777777777778   0.375000000000000
   0.555555555555555   0.277777777777778   0.375000000000000
   0.722222222222222   0.277777777777778   0.375000000000000
   0.888888888888889   0.277777777777778   0.375000000000000
   0.055555555555555   0.444444444444444   0.375000000000000
   0.222222222222222   0.444444444444444   0.375000000000000
   0.388888888888889   0.444444444444444   0.375000000000000
   0.555555555555555   0.444444444444444   0.375000000000000
   0.722222222222222   0.444444444444444   0.375000000000000
   0.888888888888889   0.444444444444444   0.375000000000000
   0.055555555555555   0.611111111111111   0.375000000000000
   0.222222222222222   0.611111111111111   0.375000000000000
   0.388888888888889   0.611111111111111   0.375000000000000
   0.555555555555555   0.611111111111111   0.375000000000000
   0.722222222222222   0.611111111111111   0.375000000000000
   0.888888888888889   0.611111111111111   0.375000000000000
   0.055555555555555   0.777777777777778   0.375000000000000
   0.222222222222222   0.777777777777778   0.375000000000000
   0.388888888888889   0.777777777777778   0.375000000000000
   0.555555555555555   0.777777777777778   0.375000000000000
   0.722222222222222   0.777777777777778   0.375000000000000
   0.888888888888889   0.777777777777778   0.375000000000000
   0.055555555555555   0.944444444444444   0.375000000000000
   0.222222222222222   0.944444444444444   0.375000000000000
   0.388888888888889   0.944444444444444   0.375000000000000
   0.555555555555555   0.944444444444444   0.375000000000000
   0.722222222222222   0.944444444444444   0.375000000000000
   0.888888888888889   0.944444444444444   0.375000000000000
   0.111111111111111   0.055555555555555   0.458333333333333
   0.277777777777778   0.055555555555555   0.458333333333333
   0.444444444444444   0.055555555555555   0.458333333333333
   0.611111111111111   0.055555555555555   0.458333333333333
   0.777777777777778   0.055555555555555   0.458333333333333
   0.944444444444444   0.055555555555555   0.458333333333333
   0.111111111111111   0.222222222222222   0.458333333333333
   0.277777777777778   0.222222222222222   0.458333333333333
   0.444444444444444   0.222222222222222   0.458333333333333
   0.611111111111111   0.222222222222222   0.458333333333333
   0.777777777777778   0.222222222222222   0.458333333333333
   0.944444444444444   0.222222222222222   0.458333333333333
   0.111111111111111   0.388888888888889   0.458333333333333
   0.277777777777778   0.388888888888889   0.458333333333333
   0.444444444444444   0.388888888888889   0.458333333333333
   0.611111111111111   0.388888888888889   0.458333333333333
   0.777777777777778   0.388888888888889   0.458333333333333
   0.944444444444444   0.388888888888889   0.458333333333333
   0.111111111111111   0.555555555555555   0.458333333333333
   0.277777777777778   0.555555555555555   0.458333333333333
   0.444444444444444   0.555555555555555   0.458333333333333
   0.611111111111111   0.555555555555555   0.458333333333333
   0.777777777777778   0.555555555555555   0.458333333333333
   0.944444444444444   0.555555555555555   0.458333333333333
   0.111111111111111   0.722222222222222   0.458333333333333
   0.277777777777778   0.722222222222222   0.458333333333333
   0.444444444444444   0.722222222222222   0.458333333333333
   0.611111111111111   0.722222222222222   0.458333333333333
   0.777777777777778   0.722222222222222   0.458333333333333
   0.944444444444444   0.722222222222222   0.458333333333333
   0.111111111111111   0.888888888888889   0.458333333333333
   0.277777777777778   0.888888888888889   0.458333333333333
   0.444444444444444   0.888888888888889   0.458333333333333
   0.611111111111111   0.888888888888889   0.458333333333333
   0.777777777777778   0.888888888888889   0.458333333333333
   0.944444444444444   0.888888888888889   0.458333333333333
   0.055555555555555   0.111111111111111   0.541666666666667
   0.222222222222222   0.111111111111111   0.541666666666667
   0.388888888888889   0.111111111111111   0.541666666666667
   0.555555555555555   0.111111111111111   0.541666666666667
   0.722222222222222   0.111111111111111   0.541666666666667
   0.888888888888889   0.111111111111111   0.541666666666667
   0.055555555555555   0.277777777777778   0.541666666666667
   0.222222222222222   0.277777777777778   0.541666666666667
   0.388888888888889   0.277777777777778   0.541666666666667
   0.555555555555555   0.277777777777778   0.541666666666667
   0.722222222222222   0.277777777777778   0.541666666666667
   0.888888888888889   0.277777777777778   0.541666666666667
   0.055555555555555   0.444444444444444   0.541666666666667
   0.222222222222222   0.444444444444444   0.541666666666667
   0.388888888888889   0.444444444444444   0.541666666666667
   0.555555555555555   0.444444444444444   0.541666666666667
   0.722222222222222   0.444444444444444   0.541666666666667
   0.888888888888889   0.444444444444444   0.541666666666667
   0.055555555555555   0.611111111111111   0.541666666666667
   0.222222222222222   0.611111111111111   0.541666666666667
   0.388888888888889   0.611111111111111   0.541666666666667
   0.555555555555555   0.611111111111111   0.541666666666667
   0.722222222222222   0.611111111111111   0.541666666666667
   0.888888888888889   0.611111111111111   0.541666666666667
   0.055555555555555   0.777777777777778   0.541666666666667
   0.222222222222222   0.777777777777778   0.541666666666667
   0.388888888888889   0.777777777777778   0.541666666666667
   0.555555555555555   0.777777777777778   0.541666666666667
   0.722222222222222   0.777777777777778   0.541666666666667
   0.888888888888889   0.777777777777778   0.541666666666667
   0.055555555555555   0.944444444444444   0.541666666666667
   0.222222222222222   0.944444444444444   0.541666666666667
   0.388888888888889   0.944444444444444   0.541666666666667
   0.555555555555555   0.944444444444444   0.541666666666667
   0.722222222222222   0.944444444444444   0.541666666666667
   0.888888888888889   0.944444444444444   0.541666666666667
   0.111111111111111   0.055555555555555   0.625000000000000
   0.277777777777778   0.055555555555555   0.625000000000000
   0.444444444444444   0.055555555555555   0.625000000000000
   0.611111111111111   0.055555555555555   0.625000000000000
   0.777777777777778   0.055555555555555   0.625000000000000
   0.944444444444444   0.055555555555555   0.625000000000000
   0.111111111111111   0.222222222222222   0.625000000000000
   0.277777777777778   0.222222222222222   0.625000000000000
   0.444444444444444   0.222222222222222   0.625000000000000
   0.611111111111111   0.222222222222222   0.625000000000000
   0.777777777777778   0.222222222222222   0.625000000000000
   0.944444444444444   0.222222222222222   0.625000000000000
   0.111111111111111   0.388888888888889   0.625000000000000
   0.277777777777778   0.388888888888889   0.625000000000000
   0.444444444444444   0.388888888888889   0.625000000000000
   0.611111111111111   0.388888888888889   0.625000000000000
   0.777777777777778   0.388888888888889   0.625000000000000
   0.944444444444444   0.388888888888889   0.625000000000000
   0.111111111111111   0.555555555555555   0.625000000000000
   0.277777777777778   0.555555555555555   0.625000000000000
   0.444444444444444   0.555555555555555   0.625000000000000
   0.611111111111111   0.555555555555555   0.625000000000000
   0.777777777777778   0.555555555555555   0.625000000000000
   0.944444444444444   0.555555555555555   0.625000000000000
   0.111111111111111   0.722222222222222   0.625000000000000
   0.277777777777778   0.722222222222222   0.625000000000000
   0.444444444444444   0.722222222222222   0.625000000000000
   0.611111111111111   0.722222222222222   0.625000000000000
   0.777777777777778   0.722222222222222   0.625000000000000
   0.944444444444444   0.722222222222222   0.625000000000000
   0.111111111111111   0.888888888888889   0.625000000000000
   0.277777777777778   0.888888888888889   0.625000000000000
   0.444444444444444   0.888888888888889   0.625000000000000
   0.611111111111111   0.888888888888889   0.625000000000000
   0.777777777777778   0.888888888888889   0.625000000000000
   0.944444444444444   0.888888888888889   0.625000000000000
   0.055555555555555   0.111111111111111   0.708333333333333
   0.222222222222222   0.111111111111111   0.708333333333333
   0.388888888888889   0.111111111111111   0.708333333333333
   0.555555555555555   0.111111111111111   0.708333333333333
   0.722222222222222   0.111111111111111   0.708333333333333
   0.888888888888889   0.111111111111111   0.708333333333333
   0.055555555555555   0.277777777777778   0.708333333333333
   0.222222222222222   0.277777777777778   0.708333333333333
   0.388888888888889   0.277777777777778   0.708333333333333
   0.555555555555555   0.277777777777778   0.708333333333333
   0.722222222222222   0.277777777777778   0.708333333333333
   0.888888888888889   0.277777777777778   0.708333333333333
   0.055555555555555   0.444444444444444   0.708333333333333
   0.222222222222222   0.444444444444444   0.708333333333333
   0.388888888888889   0.444444444444444   0.708333333333333
   0.555555555555555   0.444444444444444   0.708333333333333
   0.722222222222222   0.444444444444444   0.708333333333333
   0.888888888888889   0.444444444444444   0.708333333333333
   0.055555555555555   0.611111111111111   0.708333333333333
   0.222222222222222   0.611111111111111   0.708333333333333
   0.388888888888889   0.611111111111111   0.708333333333333
   0.555555555555555   0.611111111111111   0.708333333333333
   0.722222222222222   0.611111111111111   0.708333333333333
   0.888888888888889   0.611111111111111   0.708333333333333
   0.055555555555555   0.777777777777778   0.708333333333333
   0.222222222222222   0.777777777777778   0.708333333333333
   0.388888888888889   0.777777777777778   0.708333333333333
   0.555555555555555   0.777777777777778   0.708333333333333
   0.722222222222222   0.777777777777778   0.708333333333333
   0.888888888888889   0.777777777777778   0.708333333333333
   0.055555555555555   0.944444444444444   0.708333333333333
   0.222222222222222   0.944444444444444   0.708333333333333
   0.388888888888889   0.944444444444444   0.708333333333333
   0.555555555555555   0.944444444444444   0.708333333333333
   0.722222222222222   0.944444444444444   0.708333333333333
   0.888888888888889   0.944444444444444   0.708333333333333
   0.111111111111111   0.055555555555555   0.791666666666667
   0.277777777777778   0.055555555555555   0.791666666666667
   0.444444444444444   0.055555555555555   0.791666666666667
   0.611111111111111   0.055555555555555   0.791666666666667
   0.777777777777778   0.055555555555555   0.791666666666667
   0.944444444444444   0.055555555555555   0.791666666666667
   0.111111111111111   0.222222222222222   0.791666666666667
   0.277777777777778   0.222222222222222   0.791666666666667
   0.444444444444444   0.222222222222222   0.791666666666667
   0.611111111111111   0.222222222222222   0.791666666666667
   0.777777777777778   0.222222222222222   0.791666666666667
   0.944444444444444   0.222222222222222   0.791666666666667
   0.111111111111111   0.388888888888889   0.791666666666667
   0.277777777777778   0.388888888888889   0.791666666666667
   0.444444444444444   0.388888888888889   0.791666666666667
   0.611111111111111   0.388888888888889   0.791666666666667
   0.777777777777778   0.388888888888889   0.791666666666667
   0.944444444444444   0.388888888888889   0.791666666666667
   0.111111111111111   0.555555555555555   0.791666666666667
   0.277777777777778   0.555555555555555   0.791666666666667
   0.444444444444444   0.555555555555555   0.791666666666667
   0.611111111111111   0.555555555555555   0.791666666666667
   0.777777777777778   0.555555555555555   0.791666666666667
   0.944444444444444   0.555555555555555   0.791666666666667
   0.111111111111111   0.722222222222222   0.791666666666667
   0.277777777777778   0.722222222222222   0.791666666666667
   0.444444444444444   0.722222222222222   0.791666666666667
   0.611111111111111   0.722222222222222   0.791666666666667
   0.777777777777778   0.722222222222222   0.791666666666667
   0.944444444444444   0.722222222222222   0.791666666666667
   0.111111111111111   0.888888888888889   0.791666666666667
   0.277777777777778   0.888888888888889   0.791666666666667
   0.444444444444444   0.888888888888889   0.791666666666667
   0.611111111111111   0.888888888888889   0.791666666666667
   0.777777777777778   0.888888888888889   0.791666666666667
   0.944444444444444   0.888888888888889   0.791666666666667
   0.055555555555555   0.111111111111111   0.875000000000000
   0.222222222222222   0.111111111111111   0.875000000000000
   0.388888888888889   0.111111111111111   0.875000000000000
   0.555555555555555   0.111111111111111   0.875000000000000
   0.722222222222222   0.111111111111111   0.875000000000000
   0.888888888888889   0.111111111111111   0.875000000000000
   0.055555555555555   0.277777777777778   0.875000000000000
   0.222222222222222   0.277777777777778   0.875000000000000
   0.388888888888889   0.277777777777778   0.875000000000000
   0.555555555555555   0.277777777777778   0.875000000000000
   0.722222222222222   0.277777777777778   0.875000000000000
   0.888888888888889   0.277777777777778   0.875000000000000
   0.055555555555555   0.444444444444444   0.875000000000000
   0.222222222222222   0.444444444444444   0.875000000000000
   0.388888888888889   0.444444444444444   0.875000000000000
   0.555555555555555   0.444444444444444   0.875000000000000
   0.722222222222222   0.444444444444444   0.875000000000000
   0.888888888888889   0.444444444444444   0.875000000000000
   0.055555555555555   0.611111111111111   0.875000000000000
   0.222222222222222   0.611111111111111   0.875000000000000
   0.388888888888889   0.611111111111111   0.875000000000000
   0.555555555555555   0.611111111111111   0.875000000000000
   0.722222222222222   0.611111111111111   0.875000000000000
   0.888888888888889   0.611111111111111   0.875000000000000
   0.055555555555555   0.777777777777778   0.875000000000000
   0.222222222222222   0.777777777777778   0.875000000000000
   0.388888888888889   0.777777777777778   0.875000000000000
   0.555555555555555   0.777777777777778   0.875000000000000
   0.722222222222222   0.777777777777778   0.875000000000000
   0.888888888888889   0.777777777777778   0.875000000000000
   0.055555555555555   0.944444444444444   0.875000000000000
   0.222222222222222   0.944444444444444   0.875000000000000
   0.388888888888889   0.944444444444444   0.875000000000000
   0.555555555555555   0.944444444444444   0.875000000000000
   0.722222222222222   0.944444444444444   0.875000000000000
   0.888888888888889   0.944444444444444   0.875000000000000
   0.111111111111111   0.055555555555555   0.958333333333333
   0.277777777777778   0.055555555555555   0.958333333333333
   0.444444444444444   0.055555555555555   0.958333333333333
   0.611111111111111   0.055555555555555   0.958333333333333
   0.777777777777778   0.055555555555555   0.958333333333333
   0.944444444444444   0.055555555555555   0.958333333333333
   0.111111111111111   0.222222222222222   0.958333333333333
   0.277777777777778   0.222222222222222   0.958333333333333
   0.444444444444444   0.222222222222222   0.958333333333333
   0.611111111111111   0.222222222222222   0.958333333333333
   0.777777777777778   0.222222222222222   0.958333333333333
   0.944444444444444   0.222222222222222   0.958333333333333
   0.111111111111111   0.388888888888889   0.958333333333333
   0.277777777777778   0.388888888888889   0.958333333333333
   0.444444444444444   0.388888888888889   0.958333333333333
   0.611111111111111   0.388888888888889   0.958333333333333
   0.777777777777778   0.388888888888889   0.958333333333333
   0.944444444444444   0.388888888888889   0.958333333333333
   0.111111111111111   0.555555555555555   0.958333333333333
   0.277777777777778   0.555555555555555   0.958333333333333
   0.444444444444444   0.555555555555555   0.958333333333333
   0.611111111111111   0.555555555555555   0.958333333333333
   0.777777777777778   0.555555555555555   0.958333333333333
   0.944444444444444   0.555555555555555   0.958333333333333
   0.111111111111111   0.722222222222222   0.958333333333333
   0.277777777777778   0.722222222222222   0.958333333333333
   0.444444444444444   0.722222222222222   0.958333333333333
   0.611111111111111   0.722222222222222   0.958333333333333
   0.777777777777778   0.722222222222222   0.958333333333333
   0.944444444444444   0.722222222222222   0.958333333333333
   0.111111111111111   0.888888888888889   0.958333333333333
   0.277777777777778   0.888888888888889   0.958333333333333
   0.444444444444444   0.888888888888889   0.958333333333333
   0.611111111111111   0.888888888888889   0.958333333333333
   0.777777777777778   0.888888888888889   0.958333333333333
   0.944444444444444   0.888888888888889   0.958333333333333
