super cell                              
   1.0000000000000000     
     7.0910579868165264    0.0000000000000000    0.0000000000000000
     0.0000000000000000    3.5455289934082632    0.0000000000000000
     0.0000000000000000    0.0000000000000000    3.5455289934082632
   Al
     4
Direct
  0.9331203076895143  0.0161318259852311  0.9408517278157226
  0.6048168101574305  0.8784402065833159  0.0154802793762313
  0.1752232481186081  0.6637571507809092  0.5499507237949263
  0.7868396340344473  0.4416708166505431  0.4937172690131200

 -0.21577786E-03 -0.86109630E-02  0.11408551E-02
  0.51471895E-02 -0.38392304E-03 -0.44474978E-02
 -0.87165791E-02  0.35538983E-02  0.69503490E-03
  0.37851675E-02  0.54409878E-02  0.26116078E-02

           1
   2.0000000000000000     
  0.97168272E+00  0.16717238E-02  0.42606841E-19  0.00000000E+00
  0.93305945E+00  0.11274462E-01  0.94149527E+00
  0.60626855E+00  0.87822364E+00  0.12971487E-01
  0.17276478E+00  0.66576187E+00  0.55034279E+00
  0.78790722E+00  0.44474003E+00  0.49519045E+00
 -0.22395343E-03 -0.47818757E-02  0.41970411E-03
  0.16034930E-02 -0.23164921E-03 -0.25327550E-02
 -0.24848926E-02  0.20734906E-02  0.47436050E-03
  0.11053531E-02  0.29400343E-02  0.16386904E-02
  0.00000000E+00  0.00000000E+00  0.00000000E+00
  0.00000000E+00  0.00000000E+00  0.00000000E+00
  0.00000000E+00  0.00000000E+00  0.00000000E+00
  0.00000000E+00  0.00000000E+00  0.00000000E+00
