super cell                              
   1.0000000000000000     
     7.0910579868165264    0.0000000000000000    0.0000000000000000
     0.0000000000000000    3.5455289934082632    0.0000000000000000
     0.0000000000000000    0.0000000000000000    3.5455289934082632
   Al
     4
Direct
  0.0198376266554159  0.9746941942037340  0.9065072739081099
  0.4635243459647693  0.0105044898573464  0.9736783037364463
  0.3298405853589491  0.4846541787406071  0.4997091812594898
  0.6867974420208656  0.5301471371983122  0.6201052410959536

  0.56906304E-02  0.39708565E-03 -0.36835893E-02
 -0.52077492E-03  0.71907328E-03  0.25171608E-02
 -0.15247004E-01  0.18106161E-02  0.46357386E-03
  0.10077149E-01 -0.29267750E-02  0.70285460E-03

           1
   2.0000000000000000     
  0.10113838E+01 -0.32392620E-03 -0.42606841E-19  0.00000000E+00
  0.21442643E-01  0.97491819E+00  0.90442940E+00
  0.46337746E+00  0.10910112E-01  0.97509821E+00
  0.32554024E+00  0.48567553E+00  0.49997068E+00
  0.68963966E+00  0.52849617E+00  0.62050171E+00
  0.15707789E-02  0.21054954E-03 -0.20560721E-02
 -0.13633691E-03  0.44573202E-03  0.12585281E-02
 -0.42413547E-02  0.95036776E-03  0.34070390E-03
  0.28069126E-02 -0.16066493E-02  0.45684017E-03
  0.00000000E+00  0.00000000E+00  0.00000000E+00
  0.00000000E+00  0.00000000E+00  0.00000000E+00
  0.00000000E+00  0.00000000E+00  0.00000000E+00
  0.00000000E+00  0.00000000E+00  0.00000000E+00
