super cell                              
-10342.12
     9.5160698588808970  -16.4823164839565095    0.0000000000000000
     9.5160698588808970   16.4823164839565095    0.0000000000000000
     0.0000000000000000    0.0000000000000000   30.8472293999999998
  Mg
  432
 Direct
0.01974664 0.10139051 0.04301569
0.18545090 0.10274502 0.05320010
0.38265458 0.13775922 0.03851426
0.55508364 0.12159325 0.04975357
0.70040361 0.11794006 0.05363987
0.87705575 0.11460367 0.05689685
0.04734699 0.28916542 0.04905597
0.22881520 0.28317284 0.03716837
0.40127651 0.29398594 0.05107386
0.55335304 0.27710151 0.03894252
0.73688071 0.30169622 0.05601516
0.86188750 0.26201094 0.03939519
0.10665134 0.47969462 0.03668603
0.24121790 0.44003653 0.03441951
0.39830802 0.44727377 0.03874759
0.55923620 0.45083625 0.04867525
0.74093928 0.44650584 0.03278381
0.94410408 0.47475275 0.04552171
0.09154625 0.63415809 0.02719623
0.25122451 0.63583447 0.01400858
0.38557992 0.60469528 0.02982247
0.55571351 0.59993015 0.03817751
0.71088502 0.59700840 0.03692972
0.90965568 0.62578740 0.03918401
0.07781977 0.79071646 0.04318446
0.23370302 0.77698598 0.02721990
0.39870686 0.77890295 0.03704591
0.55638609 0.76402201 0.04806086
0.70182969 0.75134022 0.02979985
0.89012086 0.78412588 0.03478761
0.03749207 0.95121335 0.03427945
0.21068672 0.94844998 0.02937292
0.38313176 0.96139783 0.03196048
0.54666513 0.94693644 0.04425721
0.69474824 0.94747897 0.04050665
0.84843728 0.93280475 0.05010133
0.08040360 0.06043369 0.13267091
0.25774889 0.08687146 0.13596880
0.39685654 0.05487835 0.13090237
0.58236140 0.05168200 0.13389332
0.73952197 0.04740836 0.13259629
0.92002716 0.05640806 0.13424238
0.13384512 0.23677486 0.12675028
0.30545450 0.25219364 0.13065567
0.46625690 0.25917156 0.12581520
0.61135784 0.23096085 0.11753280
0.80369323 0.22519845 0.13428131
0.95575079 0.23989716 0.12476224
0.12811390 0.37653781 0.12588439
0.29394611 0.39669538 0.11548682
0.46678193 0.41146342 0.12405526
0.66295726 0.43303723 0.12223322
0.80652474 0.39104251 0.13478326
0.96265856 0.38818422 0.11679430
0.10248179 0.55087021 0.12174334
0.28133358 0.56985639 0.11004973
0.44973465 0.57482865 0.10972593
0.61742642 0.55282266 0.12165760
0.80966532 0.57765600 0.12107921
0.94408613 0.55096670 0.11978239
0.10414322 0.71301712 0.12528771
0.24610049 0.71177850 0.11953517
0.43138593 0.72797803 0.11612661
0.61223119 0.70547855 0.13753468
0.76712222 0.72960419 0.10963734
0.95230974 0.74421507 0.11171007
0.09254909 0.91545885 0.12580911
0.24880461 0.89378660 0.10832856
0.44051257 0.91024395 0.11760067
0.59780482 0.88895885 0.12921878
0.74913449 0.88200903 0.12801085
0.91025701 0.89569002 0.11936463
0.03830862 0.11417947 0.21043678
0.19377532 0.10321411 0.21907579
0.38130377 0.14414608 0.21145459
0.54889114 0.11300589 0.22003292
0.69917555 0.11495761 0.21150732
0.86755647 0.13958298 0.21807596
0.03950937 0.27525285 0.20482705
0.20373236 0.27670155 0.21133816
0.39397675 0.30716768 0.21373216
0.57717105 0.28961578 0.20303892
0.72740309 0.28233558 0.20976049
0.89363721 0.30707713 0.20573557
0.06262580 0.47097366 0.20831937
0.21782148 0.44619000 0.20152811
0.38816032 0.46008523 0.20867117
0.56146342 0.46189845 0.21217418
0.70585741 0.44370536 0.21091661
0.87333827 0.48381789 0.21057552
0.06021267 0.61950526 0.20242001
0.22799043 0.61181614 0.20140335
0.40418513 0.63173749 0.19696858
0.55728180 0.60370866 0.23025280
0.73259155 0.62629164 0.19728810
0.90944976 0.64984969 0.19781861
0.07578605 0.79835987 0.20689986
0.26187526 0.80833267 0.20429052
0.40469614 0.79431908 0.21132377
0.55238082 0.77705116 0.21322748
0.73283878 0.78135701 0.20846126
0.90259746 0.78638678 0.19980703
0.04163659 0.93916630 0.22163928
0.21848846 0.95364689 0.20009133
0.39164868 0.97391329 0.21332636
0.55369275 0.93779000 0.20908334
0.73464702 0.97792353 0.22335278
0.89329834 0.95057237 0.22107526
0.09964231 0.05265299 0.30028721
0.26657958 0.03807990 0.28781542
0.42460171 0.07249271 0.29247869
0.62406635 0.07537580 0.30068202
0.79351325 0.05398010 0.30401537
0.94093021 0.04596553 0.29787935
0.11697617 0.21882350 0.29698378
0.29700666 0.20554655 0.29344003
0.47225088 0.25084137 0.28650177
0.62932702 0.25262973 0.28577920
0.79603176 0.21621457 0.29439498
0.95400409 0.22390566 0.29652855
0.12261082 0.38613820 0.28661816
0.28883323 0.36963216 0.28153494
0.47953999 0.42835156 0.29495361
0.63417467 0.41334055 0.30623757
0.78118437 0.37402269 0.28269388
0.97300631 0.39548305 0.29230027
0.14622717 0.56458091 0.28999485
0.28394220 0.53700630 0.29299163
0.43737056 0.56638812 0.29545620
0.63024607 0.58874597 0.30313523
0.80299576 0.56749014 0.29787647
0.95491699 0.53176607 0.30206218
0.12229981 0.69853598 0.29060177
0.28651023 0.72310264 0.28578977
0.44096727 0.72352814 0.28812661
0.60585624 0.73284993 0.30110511
0.78857452 0.73387498 0.27975287
0.95252514 0.72312393 0.29733501
0.12229344 0.88453310 0.28750847
0.28857845 0.88539387 0.28598076
0.45735832 0.91651920 0.28804222
0.61863280 0.89959185 0.29556536
0.76821862 0.88312409 0.28947187
0.93391527 0.86320794 0.29197006
0.04839482 0.09639146 0.39726319
0.23557711 0.10213249 0.37714419
0.41375873 0.14225750 0.37105393
0.56458501 0.12937009 0.37299629
0.73064146 0.11819314 0.38346081
0.89814909 0.08393881 0.38165139
0.06614345 0.25616087 0.38099556
0.20633667 0.26393263 0.36986883
0.37221801 0.28469411 0.37580626
0.58187812 0.29672550 0.38086374
0.71710128 0.25836627 0.36544941
0.91894511 0.26358325 0.38540335
0.06189857 0.44147403 0.38162833
0.20568239 0.42751524 0.37167121
0.36284262 0.44295059 0.35588428
0.56600241 0.43722525 0.38338115
0.76398746 0.45020332 0.37511477
0.87660469 0.39197510 0.36644292
0.06949677 0.58072162 0.37766700
0.23170968 0.61582780 0.37405572
0.38518981 0.60361617 0.37436141
0.51908729 0.57363035 0.38215609
0.73438958 0.60601853 0.38133499
0.91163054 0.61567322 0.37561020
0.07374183 0.76967674 0.35877563
0.23559019 0.78724069 0.36464809
0.40964656 0.79555956 0.36952314
0.55631248 0.78808128 0.37417779
0.72754228 0.78593788 0.38049822
0.88637462 0.78138941 0.37521521
0.04575495 0.92976032 0.37932550
0.20979688 0.93581746 0.37759545
0.39827378 0.95206574 0.37312636
0.57109301 0.96189406 0.38177350
0.72470459 0.93857314 0.37496234
0.90285794 0.94563229 0.36426672
0.12305150 0.06733192 0.46265033
0.27235778 0.04423564 0.46120631
0.44932539 0.06191362 0.44829769
0.59014654 0.05423195 0.46162230
0.73681469 0.02361603 0.46060056
0.95228505 0.05253701 0.48318930
0.13447861 0.21661119 0.46990126
0.27915413 0.22269933 0.46184476
0.44929673 0.23310086 0.45665739
0.60690797 0.23108099 0.45890591
0.75635540 0.20668511 0.46294045
0.89467320 0.17477396 0.47032875
0.07048006 0.34750709 0.46789873
0.28294462 0.38175367 0.45022595
0.45289547 0.40674701 0.44990307
0.60490677 0.38872298 0.46836418
0.76509420 0.36681171 0.45410065
0.92506880 0.37063222 0.46374916
0.09350767 0.54245146 0.46032227
0.25197928 0.52257941 0.46074909
0.40542039 0.55008133 0.47053801
0.61833400 0.59172562 0.45402885
0.77034266 0.55143925 0.45531013
0.92133365 0.52307895 0.45897364
0.09797024 0.70707778 0.45388896
0.26765454 0.70022879 0.45522348
0.42364494 0.71873928 0.45536114
0.57963431 0.72288670 0.45423990
0.79741447 0.73110942 0.45506374
0.94562059 0.70321409 0.45869270
0.11243455 0.88135988 0.46080323
0.27575360 0.88733582 0.44901931
0.41420008 0.86437659 0.47258375
0.58433981 0.87822982 0.45410286
0.79431502 0.90437606 0.45717358
0.94823985 0.89675162 0.46048062
0.06261422 0.10485082 0.55562119
0.26279502 0.14308620 0.54252155
0.41073481 0.11495967 0.53259060
0.58112399 0.13315299 0.54452083
0.72050258 0.09947742 0.54519109
0.87591145 0.09260921 0.55795721
0.04339171 0.24555432 0.54138538
0.24219480 0.27521921 0.53995016
0.41208859 0.28612542 0.54376679
0.56277620 0.29996654 0.55263569
0.72745249 0.27711854 0.55004891
0.91293721 0.27093889 0.55550469
0.05743189 0.42500448 0.54224272
0.21281604 0.40982462 0.53548934
0.39423262 0.43428209 0.53833616
0.55306544 0.46217826 0.52620730
0.74179575 0.45474778 0.54819618
0.89253017 0.42332462 0.55267634
0.03281900 0.59122762 0.53925740
0.19517461 0.60082085 0.53298589
0.35215072 0.61106599 0.53960339
0.53961303 0.61516613 0.54512116
0.71892361 0.60743202 0.52213877
0.89470802 0.60931822 0.53717756
0.07493986 0.76487977 0.53852827
0.23999246 0.77913077 0.54766377
0.40058700 0.77616956 0.56757662
0.54880004 0.77241458 0.54327076
0.70085745 0.77571021 0.52501232
0.93217827 0.79972044 0.54524024
0.08248806 0.95878024 0.54457980
0.23761155 0.95328797 0.54854056
0.38434552 0.94254496 0.54801777
0.53568601 0.92823096 0.54413750
0.70391252 0.92329425 0.53996633
0.88281916 0.93288814 0.54324175
0.10571112 0.03613405 0.64226967
0.28498980 0.06046451 0.63532536
0.43917889 0.06248392 0.61172105
0.61667855 0.03820728 0.62050970
0.77900833 0.03199302 0.63016668
0.96046663 0.07139199 0.62670767
0.11405426 0.23190678 0.62495291
0.25907580 0.20351819 0.62278734
0.44315834 0.21909340 0.61825454
0.62399116 0.22335735 0.63172002
0.77697367 0.21159968 0.62540543
0.94405476 0.20404688 0.63123968
0.08988102 0.37174384 0.61549601
0.28248688 0.35761981 0.62165984
0.46286203 0.38268103 0.62713223
0.60968034 0.38368522 0.63667608
0.77255992 0.39515364 0.62445035
0.92021298 0.36191162 0.63352301
0.11804106 0.54778365 0.61806538
0.26422922 0.51800754 0.61848273
0.42480376 0.53008626 0.62098417
0.59242032 0.54966886 0.61378155
0.77069430 0.57199487 0.61783882
0.94722676 0.55626294 0.62061917
0.11303101 0.70804860 0.62823181
0.27211997 0.71808923 0.62978463
0.44758440 0.70013387 0.62581877
0.61928569 0.73495680 0.62197403
0.77020449 0.72806768 0.60810209
0.95589553 0.73955436 0.62002171
0.10654439 0.89949710 0.62651668
0.25770533 0.88568135 0.62998023
0.42170764 0.89796003 0.62443277
0.58815406 0.86752673 0.63200480
0.77529665 0.88421293 0.62831893
0.94439595 0.90398225 0.63357457
0.02749892 0.07355539 0.71071648
0.23907741 0.10695578 0.72138627
0.39857019 0.11958565 0.71397195
0.54051243 0.07408569 0.70885471
0.71504325 0.11715147 0.71131017
0.85008813 0.09607053 0.71563949
0.02573312 0.25448811 0.71285520
0.19012431 0.24618318 0.71031631
0.38289208 0.26954912 0.70487695
0.54848679 0.27798166 0.71708346
0.74789359 0.29104859 0.69384055
0.88613432 0.26847926 0.71692139
0.04525261 0.43608277 0.68937186
0.21246859 0.40263949 0.69480136
0.38028423 0.43240876 0.70064477
0.57165896 0.45192768 0.71090121
0.74877985 0.46410602 0.69876777
0.89863147 0.44903729 0.70543124
0.07434245 0.62518807 0.72010868
0.20261310 0.58024925 0.70404122
0.35592596 0.60141575 0.70491691
0.54941665 0.60533040 0.71124500
0.72252293 0.60652906 0.69766898
0.91188267 0.63835352 0.69805919
0.04487406 0.76891558 0.70450421
0.19728382 0.78357359 0.70608127
0.37965367 0.76037398 0.70856349
0.55016877 0.75102408 0.71178137
0.71095071 0.77286174 0.70083095
0.87933483 0.79303202 0.71604892
0.04451324 0.93073374 0.71862562
0.22372242 0.96193507 0.72083446
0.37225629 0.94574359 0.70242842
0.53143970 0.92368043 0.70385649
0.68859653 0.92747912 0.72011828
0.86811873 0.95047866 0.70323592
0.10317946 0.05190208 0.79351904
0.29485634 0.05991799 0.79920615
0.46468820 0.05451419 0.79246387
0.60276999 0.03905055 0.79158609
0.75173981 0.03221569 0.79888982
0.92067472 0.05581594 0.78982297
0.11838682 0.22231431 0.79506994
0.27852798 0.22591167 0.78954480
0.46638426 0.20434871 0.79844292
0.63452538 0.22836012 0.78353440
0.77408988 0.20257072 0.78634521
0.95067929 0.21876361 0.79361600
0.12015354 0.38969145 0.77560934
0.29276871 0.40477500 0.80457273
0.44826395 0.36268118 0.78017410
0.61884506 0.39865345 0.78934966
0.78119934 0.39081434 0.78065626
0.96488392 0.39367078 0.78670320
0.11607457 0.55811804 0.80222054
0.27654398 0.55431480 0.78648230
0.42288510 0.53749840 0.77620519
0.59334356 0.54763155 0.78604987
0.77798193 0.53960512 0.78919267
0.94371713 0.55095336 0.78647330
0.13685910 0.72639268 0.79857226
0.27873630 0.71024444 0.78497231
0.44410533 0.70938415 0.78882572
0.60710497 0.70619943 0.78545059
0.78759625 0.70601963 0.79731553
0.94460665 0.69436428 0.78386299
0.11787347 0.87883996 0.79162592
0.30231454 0.89621979 0.79282351
0.44988578 0.89194811 0.78846487
0.57480200 0.86037249 0.79015366
0.77728789 0.88783314 0.79516575
0.94420832 0.88724730 0.79549867
0.01840672 0.07589548 0.88212681
0.21117203 0.11263817 0.87533329
0.35878171 0.10191930 0.88701818
0.56686944 0.13363475 0.87687317
0.71063774 0.12774614 0.87596677
0.87083206 0.10758502 0.87332927
0.03889679 0.25750580 0.87819108
0.18522642 0.23989074 0.88007346
0.39195390 0.26789587 0.87473243
0.56926828 0.29255058 0.88230200
0.71165448 0.27582611 0.86869569
0.88783876 0.27901414 0.86767491
0.05138338 0.44901321 0.87244607
0.19661241 0.40958074 0.87353555
0.37860856 0.40903755 0.87850458
0.56043034 0.43101057 0.86919175
0.74353292 0.43458967 0.88514782
0.88963990 0.42741134 0.88316896
0.04569257 0.59565642 0.86733714
0.25285944 0.65595291 0.86885166
0.39682679 0.59109490 0.86218027
0.54503528 0.60268398 0.86695810
0.71333866 0.59329950 0.87361950
0.89511799 0.61299006 0.88312761
0.03291172 0.76801535 0.85752010
0.23210123 0.79228034 0.86995594
0.42042312 0.78017160 0.86633945
0.58363256 0.80262814 0.86589061
0.70463364 0.75256999 0.87158220
0.89655841 0.77881122 0.87609542
0.04544423 0.94055891 0.87707453
0.21078326 0.94972207 0.87327099
0.38278900 0.95079567 0.87910280
0.54732040 0.96189956 0.89023238
0.72489402 0.97320155 0.89169155
0.85514842 0.91922069 0.88326253
0.10378159 0.07323656 0.96106893
0.25174167 0.05648098 0.95690607
0.48554866 0.08298610 0.95748689
0.62702620 0.07764876 0.96372412
0.79812179 0.08660563 0.96858440
0.92006668 0.05303599 0.97014709
0.09669911 0.21347694 0.96640693
0.27394337 0.21687766 0.95357263
0.44775584 0.20832550 0.95678922
0.63095602 0.25266515 0.97245463
0.77633646 0.22875509 0.95014945
0.94563634 0.24387202 0.95200206
0.10791277 0.39795290 0.95247659
0.30546709 0.39738106 0.95711659
0.47108955 0.36559528 0.95865016
0.64638349 0.42739925 0.95354469
0.79702671 0.38798714 0.96966286
0.95966968 0.40860708 0.96264145
0.14904548 0.58824699 0.94075365
0.29135422 0.55255812 0.94329131
0.44726209 0.55348858 0.95420721
0.60210091 0.55220401 0.95545341
0.81104943 0.56782080 0.96056082
0.97294767 0.56568826 0.95719380
0.12001056 0.74166216 0.94788352
0.31166066 0.76280943 0.93761504
0.44034160 0.71546295 0.94361407
0.60747379 0.72065627 0.95511770
0.77099826 0.69836661 0.95380374
0.94331741 0.73727613 0.95723191
0.10084321 0.89211138 0.95302969
0.27613644 0.91158203 0.95356755
0.46091011 0.91110700 0.96569727
0.60337903 0.88924674 0.96026719
0.75461211 0.89717557 0.96381346
0.91336263 0.88611990 0.95174598
