super cell                              
-10342.12
     9.5160698588808970  -16.4823164839565095    0.0000000000000000
     9.5160698588808970   16.4823164839565095    0.0000000000000000
     0.0000000000000000    0.0000000000000000   30.8472293999999998
  Mg
  432
 Direct
